
Version,
  25.1;                                   !- Version Identifier

Timestep,
  6;                                      !- Number of Timesteps per Hour

LifeCycleCost:Parameters,
  Life Cycle Cost Parameters,             !- Name
  EndOfYear,                              !- Discounting Convention
  ConstantDollar,                         !- Inflation Approach
  0.03,                                   !- Real Discount Rate
  ,                                       !- Nominal Discount Rate
  ,                                       !- Inflation
  ,                                       !- Base Date Month
  2011,                                   !- Base Date Year
  ,                                       !- Service Date Month
  2011,                                   !- Service Date Year
  25,                                     !- Length of Study Period in Years
  ,                                       !- Tax rate
  None;                                   !- Depreciation Method

LifeCycleCost:UsePriceEscalation,
  U.S. Avg  Commercial-Electricity,       !- Name
  Electricity,                            !- Resource
  2011,                                   !- Escalation Start Year
  January,                                !- Escalation Start Month
  0.9838,                                 !- Year Escalation 1
  0.9730,                                 !- Year Escalation 2
  0.9632,                                 !- Year Escalation 3
  0.9611,                                 !- Year Escalation 4
  0.9571,                                 !- Year Escalation 5
  0.9553,                                 !- Year Escalation 6
  0.9539,                                 !- Year Escalation 7
  0.9521,                                 !- Year Escalation 8
  0.9546,                                 !- Year Escalation 9
  0.9550,                                 !- Year Escalation 10
  0.9553,                                 !- Year Escalation 11
  0.9564,                                 !- Year Escalation 12
  0.9575,                                 !- Year Escalation 13
  0.9596,                                 !- Year Escalation 14
  0.9618,                                 !- Year Escalation 15
  0.9614,                                 !- Year Escalation 16
  0.9618,                                 !- Year Escalation 17
  0.9618,                                 !- Year Escalation 18
  0.9593,                                 !- Year Escalation 19
  0.9589,                                 !- Year Escalation 20
  0.9607,                                 !- Year Escalation 21
  0.9625,                                 !- Year Escalation 22
  0.9650,                                 !- Year Escalation 23
  0.9708,                                 !- Year Escalation 24
  0.9751,                                 !- Year Escalation 25
  0.9762,                                 !- Year Escalation 26
  0.9766,                                 !- Year Escalation 27
  0.9766,                                 !- Year Escalation 28
  0.9769,                                 !- Year Escalation 29
  0.9773;                                 !- Year Escalation 30

LifeCycleCost:UsePriceEscalation,
  U.S. Avg  Commercial-Distillate Oil,    !- Name
  FuelOilNo1,                             !- Resource
  2011,                                   !- Escalation Start Year
  January,                                !- Escalation Start Month
  0.9714,                                 !- Year Escalation 1
  0.9730,                                 !- Year Escalation 2
  0.9942,                                 !- Year Escalation 3
  1.0164,                                 !- Year Escalation 4
  1.0541,                                 !- Year Escalation 5
  1.0928,                                 !- Year Escalation 6
  1.1267,                                 !- Year Escalation 7
  1.1580,                                 !- Year Escalation 8
  1.1792,                                 !- Year Escalation 9
  1.1967,                                 !- Year Escalation 10
  1.2200,                                 !- Year Escalation 11
  1.2333,                                 !- Year Escalation 12
  1.2566,                                 !- Year Escalation 13
  1.2709,                                 !- Year Escalation 14
  1.2826,                                 !- Year Escalation 15
  1.2985,                                 !- Year Escalation 16
  1.3102,                                 !- Year Escalation 17
  1.3250,                                 !- Year Escalation 18
  1.3261,                                 !- Year Escalation 19
  1.3282,                                 !- Year Escalation 20
  1.3324,                                 !- Year Escalation 21
  1.3356,                                 !- Year Escalation 22
  1.3431,                                 !- Year Escalation 23
  1.3510,                                 !- Year Escalation 24
  1.3568,                                 !- Year Escalation 25
  1.3606,                                 !- Year Escalation 26
  1.3637,                                 !- Year Escalation 27
  1.3674,                                 !- Year Escalation 28
  1.3706,                                 !- Year Escalation 29
  1.3743;                                 !- Year Escalation 30

LifeCycleCost:UsePriceEscalation,
  U.S. Avg  Commercial-Residual Oil,      !- Name
  FuelOilNo2,                             !- Resource
  2011,                                   !- Escalation Start Year
  January,                                !- Escalation Start Month
  0.8469,                                 !- Year Escalation 1
  0.8257,                                 !- Year Escalation 2
  0.8681,                                 !- Year Escalation 3
  0.8988,                                 !- Year Escalation 4
  0.9289,                                 !- Year Escalation 5
  0.9604,                                 !- Year Escalation 6
  0.9897,                                 !- Year Escalation 7
  1.0075,                                 !- Year Escalation 8
  1.0314,                                 !- Year Escalation 9
  1.0554,                                 !- Year Escalation 10
  1.0861,                                 !- Year Escalation 11
  1.1278,                                 !- Year Escalation 12
  1.1497,                                 !- Year Escalation 13
  1.1620,                                 !- Year Escalation 14
  1.1743,                                 !- Year Escalation 15
  1.1852,                                 !- Year Escalation 16
  1.1948,                                 !- Year Escalation 17
  1.2037,                                 !- Year Escalation 18
  1.2071,                                 !- Year Escalation 19
  1.2119,                                 !- Year Escalation 20
  1.2139,                                 !- Year Escalation 21
  1.2194,                                 !- Year Escalation 22
  1.2276,                                 !- Year Escalation 23
  1.2365,                                 !- Year Escalation 24
  1.2420,                                 !- Year Escalation 25
  1.2461,                                 !- Year Escalation 26
  1.2509,                                 !- Year Escalation 27
  1.2550,                                 !- Year Escalation 28
  1.2591,                                 !- Year Escalation 29
  1.2638;                                 !- Year Escalation 30

LifeCycleCost:UsePriceEscalation,
  U.S. Avg  Commercial-Natural gas,       !- Name
  NaturalGas,                             !- Resource
  2011,                                   !- Escalation Start Year
  January,                                !- Escalation Start Month
  0.9823,                                 !- Year Escalation 1
  0.9557,                                 !- Year Escalation 2
  0.9279,                                 !- Year Escalation 3
  0.9257,                                 !- Year Escalation 4
  0.9346,                                 !- Year Escalation 5
  0.9412,                                 !- Year Escalation 6
  0.9512,                                 !- Year Escalation 7
  0.9645,                                 !- Year Escalation 8
  0.9856,                                 !- Year Escalation 9
  1.0067,                                 !- Year Escalation 10
  1.0222,                                 !- Year Escalation 11
  1.0410,                                 !- Year Escalation 12
  1.0610,                                 !- Year Escalation 13
  1.0787,                                 !- Year Escalation 14
  1.0942,                                 !- Year Escalation 15
  1.1098,                                 !- Year Escalation 16
  1.1220,                                 !- Year Escalation 17
  1.1308,                                 !- Year Escalation 18
  1.1386,                                 !- Year Escalation 19
  1.1486,                                 !- Year Escalation 20
  1.1619,                                 !- Year Escalation 21
  1.1763,                                 !- Year Escalation 22
  1.1918,                                 !- Year Escalation 23
  1.2118,                                 !- Year Escalation 24
  1.2284,                                 !- Year Escalation 25
  1.2439,                                 !- Year Escalation 26
  1.2605,                                 !- Year Escalation 27
  1.2772,                                 !- Year Escalation 28
  1.2938,                                 !- Year Escalation 29
  1.3115;                                 !- Year Escalation 30

LifeCycleCost:UsePriceEscalation,
  U.S. Avg  Commercial-Coal,              !- Name
  Coal,                                   !- Resource
  2011,                                   !- Escalation Start Year
  January,                                !- Escalation Start Month
  0.9970,                                 !- Year Escalation 1
  1.0089,                                 !- Year Escalation 2
  1.0089,                                 !- Year Escalation 3
  0.9941,                                 !- Year Escalation 4
  0.9941,                                 !- Year Escalation 5
  1.0000,                                 !- Year Escalation 6
  1.0030,                                 !- Year Escalation 7
  1.0059,                                 !- Year Escalation 8
  1.0089,                                 !- Year Escalation 9
  1.0119,                                 !- Year Escalation 10
  1.0148,                                 !- Year Escalation 11
  1.0178,                                 !- Year Escalation 12
  1.0208,                                 !- Year Escalation 13
  1.0267,                                 !- Year Escalation 14
  1.0297,                                 !- Year Escalation 15
  1.0356,                                 !- Year Escalation 16
  1.0415,                                 !- Year Escalation 17
  1.0534,                                 !- Year Escalation 18
  1.0564,                                 !- Year Escalation 19
  1.0593,                                 !- Year Escalation 20
  1.0653,                                 !- Year Escalation 21
  1.0712,                                 !- Year Escalation 22
  1.0742,                                 !- Year Escalation 23
  1.0801,                                 !- Year Escalation 24
  1.0831,                                 !- Year Escalation 25
  1.0831,                                 !- Year Escalation 26
  1.0861,                                 !- Year Escalation 27
  1.0890,                                 !- Year Escalation 28
  1.0920,                                 !- Year Escalation 29
  1.0950;                                 !- Year Escalation 30

Building,
  Building 1,                             !- Name
  ,                                       !- North Axis {deg}
  ,                                       !- Terrain
  ,                                       !- Loads Convergence Tolerance Value {W}
  ,                                       !- Temperature Convergence Tolerance Value {deltaC}
  ,                                       !- Solar Distribution
  ,                                       !- Maximum Number of Warmup Days
  ;                                       !- Minimum Number of Warmup Days

Zone,
  Floor_1_Zone,                           !- Name
  ,                                       !- Direction of Relative North {deg}
  0,                                      !- X Origin {m}
  0,                                      !- Y Origin {m}
  0,                                      !- Z Origin {m}
  ,                                       !- Type
  1,                                      !- Multiplier
  ,                                       !- Ceiling Height {m}
  ,                                       !- Volume {m3}
  ,                                       !- Floor Area {m2}
  ,                                       !- Zone Inside Convection Algorithm
  ,                                       !- Zone Outside Convection Algorithm
  Yes;                                    !- Part of Total Floor Area

Space,
  Floor_1,                                !- Name
  Floor_1_Zone,                           !- Zone Name
  ,                                       !- Ceiling Height {m}
  ,                                       !- Volume {m3}
  ,                                       !- Floor Area {m2}
  Residential - Living Space;             !- Space Type

SpaceList,
  Residential - Living Space,             !- Name
  Floor_1,                                !- Space Name 1
  Floor_2;                                !- Space Name 2

Lights,
  Residential Living Lights,              !- Name
  Residential - Living Space,             !- Zone or ZoneList or Space or SpaceList Name
  Residential Lighting Schedule,          !- Schedule Name
  Watts/Area,                             !- Design Level Calculation Method
  ,                                       !- Lighting Level {W}
  16,                                     !- Watts per Floor Area {W/m2}
  ,                                       !- Watts per Person {W/person}
  ,                                       !- Return Air Fraction
  ,                                       !- Fraction Radiant
  ,                                       !- Fraction Visible
  1,                                      !- Fraction Replaceable
  General;                                !- End-Use Subcategory

ScheduleTypeLimits,
  Fractional,                             !- Name
  0,                                      !- Lower Limit Value {BasedOnField A3}
  1,                                      !- Upper Limit Value {BasedOnField A3}
  Continuous,                             !- Numeric Type
  dimensionless;                          !- Unit Type

Schedule:Day:Interval,
  Schedule Day 2,                         !- Name
  Fractional,                             !- Schedule Type Limits Name
  No,                                     !- Interpolate to Timestep
  08:00,                                  !- Time 1 {hh:mm}
  0.1,                                    !- Value Until Time 1
  18:00,                                  !- Time 2 {hh:mm}
  0.3,                                    !- Value Until Time 2
  22:00,                                  !- Time 3 {hh:mm}
  0.6,                                    !- Value Until Time 3
  24:00,                                  !- Time 4 {hh:mm}
  0.2;                                    !- Value Until Time 4

Schedule:Day:Interval,
  Residential Lighting Default,           !- Name
  Fractional,                             !- Schedule Type Limits Name
  No,                                     !- Interpolate to Timestep
  06:00,                                  !- Time 1 {hh:mm}
  0.1,                                    !- Value Until Time 1
  08:00,                                  !- Time 2 {hh:mm}
  0.3,                                    !- Value Until Time 2
  16:00,                                  !- Time 3 {hh:mm}
  0.2,                                    !- Value Until Time 3
  22:00,                                  !- Time 4 {hh:mm}
  0.7,                                    !- Value Until Time 4
  24:00,                                  !- Time 5 {hh:mm}
  0.2;                                    !- Value Until Time 5

Schedule:Week:Daily,
  Residential Lighting Schedule Week Rule - Jan1-Dec31, !- Name
  Schedule Day 2,                         !- Sunday Schedule:Day Name
  Residential Lighting Default,           !- Monday Schedule:Day Name
  Residential Lighting Default,           !- Tuesday Schedule:Day Name
  Residential Lighting Default,           !- Wednesday Schedule:Day Name
  Residential Lighting Default,           !- Thursday Schedule:Day Name
  Residential Lighting Default,           !- Friday Schedule:Day Name
  Schedule Day 2,                         !- Saturday Schedule:Day Name
  Residential Lighting Default,           !- Holiday Schedule:Day Name
  Residential Lighting Default,           !- SummerDesignDay Schedule:Day Name
  Residential Lighting Default,           !- WinterDesignDay Schedule:Day Name
  Residential Lighting Default,           !- CustomDay1 Schedule:Day Name
  Residential Lighting Default;           !- CustomDay2 Schedule:Day Name

Schedule:Year,
  Residential Lighting Schedule,          !- Name
  Fractional,                             !- Schedule Type Limits Name
  Residential Lighting Schedule Week Rule - Jan1-Dec31, !- Schedule:Week Name 1
  1,                                      !- Start Month 1
  1,                                      !- Start Day 1
  12,                                     !- End Month 1
  31;                                     !- End Day 1

People,
  Residential Living Occupants,           !- Name
  Residential - Living Space,             !- Zone or ZoneList or Space or SpaceList Name
  Residential Occupancy Schedule,         !- Number of People Schedule Name
  People/Area,                            !- Number of People Calculation Method
  ,                                       !- Number of People
  0.025,                                  !- People per Floor Area {person/m2}
  ,                                       !- Floor Area per Person {m2/person}
  0.3,                                    !- Fraction Radiant
  0.5,                                    !- Sensible Heat Fraction
  Residential Activity Schedule,          !- Activity Level Schedule Name
  ,                                       !- Carbon Dioxide Generation Rate {m3/s-W}
  Yes,                                    !- Enable ASHRAE 55 Comfort Warnings
  ,                                       !- Mean Radiant Temperature Calculation Type
  ,                                       !- Surface Name/Angle Factor List Name
  Always On Discrete,                     !- Work Efficiency Schedule Name
  ,                                       !- Clothing Insulation Calculation Method
  ,                                       !- Clothing Insulation Calculation Method Schedule Name
  Always On Discrete,                     !- Clothing Insulation Schedule Name
  Always On Discrete,                     !- Air Velocity Schedule Name
  Fanger;                                 !- Thermal Comfort Model 1 Type

Schedule:Day:Interval,
  Schedule Day 1,                         !- Name
  Fractional,                             !- Schedule Type Limits Name
  No,                                     !- Interpolate to Timestep
  08:00,                                  !- Time 1 {hh:mm}
  1,                                      !- Value Until Time 1
  20:00,                                  !- Time 2 {hh:mm}
  0.9,                                    !- Value Until Time 2
  24:00,                                  !- Time 3 {hh:mm}
  1;                                      !- Value Until Time 3

Schedule:Day:Interval,
  Residential Occupancy Default,          !- Name
  Fractional,                             !- Schedule Type Limits Name
  No,                                     !- Interpolate to Timestep
  06:00,                                  !- Time 1 {hh:mm}
  1,                                      !- Value Until Time 1
  08:00,                                  !- Time 2 {hh:mm}
  0.5,                                    !- Value Until Time 2
  17:00,                                  !- Time 3 {hh:mm}
  0.3,                                    !- Value Until Time 3
  22:00,                                  !- Time 4 {hh:mm}
  0.9,                                    !- Value Until Time 4
  24:00,                                  !- Time 5 {hh:mm}
  1;                                      !- Value Until Time 5

Schedule:Week:Daily,
  Residential Occupancy Schedule Week Rule - Jan1-Dec31, !- Name
  Schedule Day 1,                         !- Sunday Schedule:Day Name
  Residential Occupancy Default,          !- Monday Schedule:Day Name
  Residential Occupancy Default,          !- Tuesday Schedule:Day Name
  Residential Occupancy Default,          !- Wednesday Schedule:Day Name
  Residential Occupancy Default,          !- Thursday Schedule:Day Name
  Residential Occupancy Default,          !- Friday Schedule:Day Name
  Schedule Day 1,                         !- Saturday Schedule:Day Name
  Residential Occupancy Default,          !- Holiday Schedule:Day Name
  Residential Occupancy Default,          !- SummerDesignDay Schedule:Day Name
  Residential Occupancy Default,          !- WinterDesignDay Schedule:Day Name
  Residential Occupancy Default,          !- CustomDay1 Schedule:Day Name
  Residential Occupancy Default;          !- CustomDay2 Schedule:Day Name

Schedule:Year,
  Residential Occupancy Schedule,         !- Name
  Fractional,                             !- Schedule Type Limits Name
  Residential Occupancy Schedule Week Rule - Jan1-Dec31, !- Schedule:Week Name 1
  1,                                      !- Start Month 1
  1,                                      !- Start Day 1
  12,                                     !- End Month 1
  31;                                     !- End Day 1

ScheduleTypeLimits,
  ActivityLevel,                          !- Name
  0,                                      !- Lower Limit Value {BasedOnField A3}
  ,                                       !- Upper Limit Value {BasedOnField A3}
  Continuous,                             !- Numeric Type
  activitylevel;                          !- Unit Type

Schedule:Day:Interval,
  Residential Activity Default,           !- Name
  ActivityLevel,                          !- Schedule Type Limits Name
  No,                                     !- Interpolate to Timestep
  06:00,                                  !- Time 1 {hh:mm}
  72,                                     !- Value Until Time 1
  08:00,                                  !- Time 2 {hh:mm}
  120,                                    !- Value Until Time 2
  18:00,                                  !- Time 3 {hh:mm}
  100,                                    !- Value Until Time 3
  22:00,                                  !- Time 4 {hh:mm}
  120,                                    !- Value Until Time 4
  24:00,                                  !- Time 5 {hh:mm}
  72;                                     !- Value Until Time 5

Schedule:Week:Daily,
  Residential Activity Schedule Week Rule - Jan1-Dec31, !- Name
  Residential Activity Default,           !- Sunday Schedule:Day Name
  Residential Activity Default,           !- Monday Schedule:Day Name
  Residential Activity Default,           !- Tuesday Schedule:Day Name
  Residential Activity Default,           !- Wednesday Schedule:Day Name
  Residential Activity Default,           !- Thursday Schedule:Day Name
  Residential Activity Default,           !- Friday Schedule:Day Name
  Residential Activity Default,           !- Saturday Schedule:Day Name
  Residential Activity Default,           !- Holiday Schedule:Day Name
  Residential Activity Default,           !- SummerDesignDay Schedule:Day Name
  Residential Activity Default,           !- WinterDesignDay Schedule:Day Name
  Residential Activity Default,           !- CustomDay1 Schedule:Day Name
  Residential Activity Default;           !- CustomDay2 Schedule:Day Name

Schedule:Year,
  Residential Activity Schedule,          !- Name
  ActivityLevel,                          !- Schedule Type Limits Name
  Residential Activity Schedule Week Rule - Jan1-Dec31, !- Schedule:Week Name 1
  1,                                      !- Start Month 1
  1,                                      !- Start Day 1
  12,                                     !- End Month 1
  31;                                     !- End Day 1

Schedule:Constant,
  Always On Discrete,                     !- Name
  OnOff 1,                                !- Schedule Type Limits Name
  1;                                      !- Hourly Value

ElectricEquipment,
  Residential Living Plug Loads,          !- Name
  Residential - Living Space,             !- Zone or ZoneList or Space or SpaceList Name
  Residential Equipment Schedule,         !- Schedule Name
  Watts/Area,                             !- Design Level Calculation Method
  ,                                       !- Design Level {W}
  8.6,                                    !- Watts per Floor Area {W/m2}
  ,                                       !- Watts per Person {W/person}
  ,                                       !- Fraction Latent
  ,                                       !- Fraction Radiant
  ,                                       !- Fraction Lost
  General;                                !- End-Use Subcategory

Schedule:Day:Interval,
  Schedule Day 3,                         !- Name
  Fractional,                             !- Schedule Type Limits Name
  No,                                     !- Interpolate to Timestep
  24:00,                                  !- Time 1 {hh:mm}
  0.7;                                    !- Value Until Time 1

Schedule:Day:Interval,
  Residential Equipment Default,          !- Name
  Fractional,                             !- Schedule Type Limits Name
  No,                                     !- Interpolate to Timestep
  06:00,                                  !- Time 1 {hh:mm}
  0.5,                                    !- Value Until Time 1
  08:00,                                  !- Time 2 {hh:mm}
  0.6,                                    !- Value Until Time 2
  17:00,                                  !- Time 3 {hh:mm}
  0.5,                                    !- Value Until Time 3
  22:00,                                  !- Time 4 {hh:mm}
  0.8,                                    !- Value Until Time 4
  24:00,                                  !- Time 5 {hh:mm}
  0.6;                                    !- Value Until Time 5

Schedule:Week:Daily,
  Residential Equipment Schedule Week Rule - Jan1-Dec31, !- Name
  Schedule Day 3,                         !- Sunday Schedule:Day Name
  Residential Equipment Default,          !- Monday Schedule:Day Name
  Residential Equipment Default,          !- Tuesday Schedule:Day Name
  Residential Equipment Default,          !- Wednesday Schedule:Day Name
  Residential Equipment Default,          !- Thursday Schedule:Day Name
  Residential Equipment Default,          !- Friday Schedule:Day Name
  Schedule Day 3,                         !- Saturday Schedule:Day Name
  Residential Equipment Default,          !- Holiday Schedule:Day Name
  Residential Equipment Default,          !- SummerDesignDay Schedule:Day Name
  Residential Equipment Default,          !- WinterDesignDay Schedule:Day Name
  Residential Equipment Default,          !- CustomDay1 Schedule:Day Name
  Residential Equipment Default;          !- CustomDay2 Schedule:Day Name

Schedule:Year,
  Residential Equipment Schedule,         !- Name
  Fractional,                             !- Schedule Type Limits Name
  Residential Equipment Schedule Week Rule - Jan1-Dec31, !- Schedule:Week Name 1
  1,                                      !- Start Month 1
  1,                                      !- Start Day 1
  12,                                     !- End Month 1
  31;                                     !- End Day 1

ZoneInfiltration:DesignFlowRate,
  Residential Living Infiltration,        !- Name
  Residential - Living Space,             !- Zone or ZoneList or Space or SpaceList Name
  Residential Infiltration Schedule,      !- Schedule Name
  AirChanges/Hour,                        !- Design Flow Rate Calculation Method
  ,                                       !- Design Flow Rate {m3/s}
  ,                                       !- Flow Rate per Floor Area {m3/s-m2}
  ,                                       !- Flow Rate per Exterior Surface Area {m3/s-m2}
  0.411764705882353,                      !- Air Changes per Hour {1/hr}
  ,                                       !- Constant Term Coefficient
  ,                                       !- Temperature Term Coefficient
  ,                                       !- Velocity Term Coefficient
  ,                                       !- Velocity Squared Term Coefficient
  Outdoor;                                !- Density Basis

BuildingSurface:Detailed,
  Surface 1,                              !- Name
  Floor,                                  !- Surface Type
  Residential Floor Construction,         !- Construction Name
  Floor_1_Zone,                           !- Zone Name
  Floor_1,                                !- Space Name
  Ground,                                 !- Outside Boundary Condition
  ,                                       !- Outside Boundary Condition Object
  NoSun,                                  !- Sun Exposure
  NoWind,                                 !- Wind Exposure
  ,                                       !- View Factor to Ground
  ,                                       !- Number of Vertices
  0, 0, 0,                                !- X,Y,Z Vertex 1 {m}
  0, 7.86990215949347, 0,                 !- X,Y,Z Vertex 2 {m}
  11.8048532392402, 7.86990215949347, 0,  !- X,Y,Z Vertex 3 {m}
  11.8048532392402, 0, 0;                 !- X,Y,Z Vertex 4 {m}

BuildingSurface:Detailed,
  Surface 2_Door,                         !- Name
  Wall,                                   !- Surface Type
  Residential Wall Construction,          !- Construction Name
  Floor_1_Zone,                           !- Zone Name
  Floor_1,                                !- Space Name
  Outdoors,                               !- Outside Boundary Condition
  ,                                       !- Outside Boundary Condition Object
  SunExposed,                             !- Sun Exposure
  WindExposed,                            !- Wind Exposure
  ,                                       !- View Factor to Ground
  ,                                       !- Number of Vertices
  0, 3.02055107974673, 2.7432,            !- X,Y,Z Vertex 1 {m}
  0, 4.84935107974673, 2.7432,            !- X,Y,Z Vertex 2 {m}
  0, 4.84935107974673, 0,                 !- X,Y,Z Vertex 3 {m}
  0, 3.02055107974673, 0;                 !- X,Y,Z Vertex 4 {m}

FenestrationSurface:Detailed,
  Entry Door,                             !- Name
  Door,                                   !- Surface Type
  Residential Door Construction,          !- Construction Name
  Surface 2_Door,                         !- Building Surface Name
  ,                                       !- Outside Boundary Condition Object
  ,                                       !- View Factor to Ground
  ,                                       !- Frame and Divider Name
  ,                                       !- Multiplier
  ,                                       !- Number of Vertices
  0, 3.47775107974673, 2.1336,            !- X,Y,Z Vertex 1 {m}
  0, 4.39215107974673, 2.1336,            !- X,Y,Z Vertex 2 {m}
  0, 4.39215107974673, 0,                 !- X,Y,Z Vertex 3 {m}
  0, 3.47775107974673, 0;                 !- X,Y,Z Vertex 4 {m}

BuildingSurface:Detailed,
  Surface 2_Left,                         !- Name
  Wall,                                   !- Surface Type
  Residential Wall Construction,          !- Construction Name
  Floor_1_Zone,                           !- Zone Name
  Floor_1,                                !- Space Name
  Outdoors,                               !- Outside Boundary Condition
  ,                                       !- Outside Boundary Condition Object
  SunExposed,                             !- Sun Exposure
  WindExposed,                            !- Wind Exposure
  ,                                       !- View Factor to Ground
  ,                                       !- Number of Vertices
  0, 0, 2.7432,                           !- X,Y,Z Vertex 1 {m}
  0, 3.02055107974673, 2.7432,            !- X,Y,Z Vertex 2 {m}
  0, 3.02055107974673, 0,                 !- X,Y,Z Vertex 3 {m}
  0, 0, 0;                                !- X,Y,Z Vertex 4 {m}

FenestrationSurface:Detailed,
  Sub Surface 8,                          !- Name
  Window,                                 !- Surface Type
  Residential Window Construction,        !- Construction Name
  Surface 2_Left,                         !- Building Surface Name
  ,                                       !- Outside Boundary Condition Object
  ,                                       !- View Factor to Ground
  ,                                       !- Frame and Divider Name
  ,                                       !- Multiplier
  ,                                       !- Number of Vertices
  0, 2.99515107974673, 1.31851869901506,  !- X,Y,Z Vertex 1 {m}
  0, 2.99515107974673, 0.9,               !- X,Y,Z Vertex 2 {m}
  0, 0.0254000000000003, 0.9,             !- X,Y,Z Vertex 3 {m}
  0, 0.0254000000000003, 1.31851869901506; !- X,Y,Z Vertex 4 {m}

BuildingSurface:Detailed,
  Surface 2_Right,                        !- Name
  Wall,                                   !- Surface Type
  Residential Wall Construction,          !- Construction Name
  Floor_1_Zone,                           !- Zone Name
  Floor_1,                                !- Space Name
  Outdoors,                               !- Outside Boundary Condition
  ,                                       !- Outside Boundary Condition Object
  SunExposed,                             !- Sun Exposure
  WindExposed,                            !- Wind Exposure
  ,                                       !- View Factor to Ground
  ,                                       !- Number of Vertices
  0, 4.84935107974673, 2.7432,            !- X,Y,Z Vertex 1 {m}
  0, 7.86990215949347, 2.7432,            !- X,Y,Z Vertex 2 {m}
  0, 7.86990215949347, 0,                 !- X,Y,Z Vertex 3 {m}
  0, 4.84935107974673, 0;                 !- X,Y,Z Vertex 4 {m}

FenestrationSurface:Detailed,
  Sub Surface 9,                          !- Name
  Window,                                 !- Surface Type
  Residential Window Construction,        !- Construction Name
  Surface 2_Right,                        !- Building Surface Name
  ,                                       !- Outside Boundary Condition Object
  ,                                       !- View Factor to Ground
  ,                                       !- Frame and Divider Name
  ,                                       !- Multiplier
  ,                                       !- Number of Vertices
  0, 7.84450215949347, 1.31851869901506,  !- X,Y,Z Vertex 1 {m}
  0, 7.84450215949347, 0.9,               !- X,Y,Z Vertex 2 {m}
  0, 4.87475107974673, 0.9,               !- X,Y,Z Vertex 3 {m}
  0, 4.87475107974673, 1.31851869901506;  !- X,Y,Z Vertex 4 {m}

BuildingSurface:Detailed,
  Surface 3,                              !- Name
  Wall,                                   !- Surface Type
  Residential Wall Construction,          !- Construction Name
  Floor_1_Zone,                           !- Zone Name
  Floor_1,                                !- Space Name
  Outdoors,                               !- Outside Boundary Condition
  ,                                       !- Outside Boundary Condition Object
  SunExposed,                             !- Sun Exposure
  WindExposed,                            !- Wind Exposure
  ,                                       !- View Factor to Ground
  ,                                       !- Number of Vertices
  0, 7.86990215949347, 2.7432,            !- X,Y,Z Vertex 1 {m}
  11.8048532392402, 7.86990215949347, 2.7432, !- X,Y,Z Vertex 2 {m}
  11.8048532392402, 7.86990215949347, 0,  !- X,Y,Z Vertex 3 {m}
  0, 7.86990215949347, 0;                 !- X,Y,Z Vertex 4 {m}

FenestrationSurface:Detailed,
  Sub Surface 2,                          !- Name
  Window,                                 !- Surface Type
  Residential Window Construction,        !- Construction Name
  Surface 3,                              !- Building Surface Name
  ,                                       !- Outside Boundary Condition Object
  ,                                       !- View Factor to Ground
  ,                                       !- Frame and Divider Name
  ,                                       !- Multiplier
  ,                                       !- Number of Vertices
  11.7794532392402, 7.86990215949347, 1.31325838091887, !- X,Y,Z Vertex 1 {m}
  11.7794532392402, 7.86990215949347, 0.9, !- X,Y,Z Vertex 2 {m}
  0.0254000000000012, 7.86990215949347, 0.9, !- X,Y,Z Vertex 3 {m}
  0.0254000000000012, 7.86990215949347, 1.31325838091887; !- X,Y,Z Vertex 4 {m}

BuildingSurface:Detailed,
  Surface 4,                              !- Name
  Wall,                                   !- Surface Type
  Residential Wall Construction,          !- Construction Name
  Floor_1_Zone,                           !- Zone Name
  Floor_1,                                !- Space Name
  Outdoors,                               !- Outside Boundary Condition
  ,                                       !- Outside Boundary Condition Object
  SunExposed,                             !- Sun Exposure
  WindExposed,                            !- Wind Exposure
  ,                                       !- View Factor to Ground
  ,                                       !- Number of Vertices
  11.8048532392402, 7.86990215949347, 2.7432, !- X,Y,Z Vertex 1 {m}
  11.8048532392402, 0, 2.7432,            !- X,Y,Z Vertex 2 {m}
  11.8048532392402, 0, 0,                 !- X,Y,Z Vertex 3 {m}
  11.8048532392402, 7.86990215949347, 0;  !- X,Y,Z Vertex 4 {m}

FenestrationSurface:Detailed,
  Sub Surface 1,                          !- Name
  Window,                                 !- Surface Type
  Residential Window Construction,        !- Construction Name
  Surface 4,                              !- Building Surface Name
  ,                                       !- Outside Boundary Condition Object
  ,                                       !- View Factor to Ground
  ,                                       !- Frame and Divider Name
  ,                                       !- Multiplier
  ,                                       !- Number of Vertices
  11.8048532392402, 0.0254, 1.31415334836834, !- X,Y,Z Vertex 1 {m}
  11.8048532392402, 0.0254, 0.9,          !- X,Y,Z Vertex 2 {m}
  11.8048532392402, 7.84450215949347, 0.9, !- X,Y,Z Vertex 3 {m}
  11.8048532392402, 7.84450215949347, 1.31415334836834; !- X,Y,Z Vertex 4 {m}

BuildingSurface:Detailed,
  Surface 5,                              !- Name
  Wall,                                   !- Surface Type
  Residential Wall Construction,          !- Construction Name
  Floor_1_Zone,                           !- Zone Name
  Floor_1,                                !- Space Name
  Outdoors,                               !- Outside Boundary Condition
  ,                                       !- Outside Boundary Condition Object
  SunExposed,                             !- Sun Exposure
  WindExposed,                            !- Wind Exposure
  ,                                       !- View Factor to Ground
  ,                                       !- Number of Vertices
  11.8048532392402, 0, 2.7432,            !- X,Y,Z Vertex 1 {m}
  0, 0, 2.7432,                           !- X,Y,Z Vertex 2 {m}
  0, 0, 0,                                !- X,Y,Z Vertex 3 {m}
  11.8048532392402, 0, 0;                 !- X,Y,Z Vertex 4 {m}

FenestrationSurface:Detailed,
  Sub Surface 3,                          !- Name
  Window,                                 !- Surface Type
  Residential Window Construction,        !- Construction Name
  Surface 5,                              !- Building Surface Name
  ,                                       !- Outside Boundary Condition Object
  ,                                       !- View Factor to Ground
  ,                                       !- Frame and Divider Name
  ,                                       !- Multiplier
  ,                                       !- Number of Vertices
  0.0254, 0, 1.31325838091887,            !- X,Y,Z Vertex 1 {m}
  0.0254, 0, 0.9,                         !- X,Y,Z Vertex 2 {m}
  11.7794532392402, 0, 0.9,               !- X,Y,Z Vertex 3 {m}
  11.7794532392402, 0, 1.31325838091887;  !- X,Y,Z Vertex 4 {m}

BuildingSurface:Detailed,
  Surface 6,                              !- Name
  Roof,                                   !- Surface Type
  Residential Roof Construction,          !- Construction Name
  Floor_1_Zone,                           !- Zone Name
  Floor_1,                                !- Space Name
  Outdoors,                               !- Outside Boundary Condition
  ,                                       !- Outside Boundary Condition Object
  SunExposed,                             !- Sun Exposure
  WindExposed,                            !- Wind Exposure
  ,                                       !- View Factor to Ground
  ,                                       !- Number of Vertices
  11.8048532392402, 0, 2.7432,            !- X,Y,Z Vertex 1 {m}
  11.8048532392402, 7.86990215949347, 2.7432, !- X,Y,Z Vertex 2 {m}
  0, 7.86990215949347, 2.7432,            !- X,Y,Z Vertex 3 {m}
  0, 0, 2.7432;                           !- X,Y,Z Vertex 4 {m}

Zone,
  Floor_2_Zone,                           !- Name
  ,                                       !- Direction of Relative North {deg}
  0,                                      !- X Origin {m}
  0,                                      !- Y Origin {m}
  0,                                      !- Z Origin {m}
  ,                                       !- Type
  1,                                      !- Multiplier
  ,                                       !- Ceiling Height {m}
  ,                                       !- Volume {m3}
  ,                                       !- Floor Area {m2}
  ,                                       !- Zone Inside Convection Algorithm
  ,                                       !- Zone Outside Convection Algorithm
  Yes;                                    !- Part of Total Floor Area

Space,
  Floor_2,                                !- Name
  Floor_2_Zone,                           !- Zone Name
  ,                                       !- Ceiling Height {m}
  ,                                       !- Volume {m3}
  ,                                       !- Floor Area {m2}
  Residential - Living Space;             !- Space Type

BuildingSurface:Detailed,
  Surface 10,                             !- Name
  Wall,                                   !- Surface Type
  Residential Wall Construction,          !- Construction Name
  Floor_2_Zone,                           !- Zone Name
  Floor_2,                                !- Space Name
  Outdoors,                               !- Outside Boundary Condition
  ,                                       !- Outside Boundary Condition Object
  SunExposed,                             !- Sun Exposure
  WindExposed,                            !- Wind Exposure
  ,                                       !- View Factor to Ground
  ,                                       !- Number of Vertices
  11.8048532392402, 7.86990215949347, 5.4864, !- X,Y,Z Vertex 1 {m}
  11.8048532392402, 0, 5.4864,            !- X,Y,Z Vertex 2 {m}
  11.8048532392402, 0, 2.7432,            !- X,Y,Z Vertex 3 {m}
  11.8048532392402, 7.86990215949347, 2.7432; !- X,Y,Z Vertex 4 {m}

FenestrationSurface:Detailed,
  Sub Surface 6,                          !- Name
  Window,                                 !- Surface Type
  Residential Window Construction,        !- Construction Name
  Surface 10,                             !- Building Surface Name
  ,                                       !- Outside Boundary Condition Object
  ,                                       !- View Factor to Ground
  ,                                       !- Frame and Divider Name
  ,                                       !- Multiplier
  ,                                       !- Number of Vertices
  11.8048532392402, 0.0254, 4.05735334836834, !- X,Y,Z Vertex 1 {m}
  11.8048532392402, 0.0254, 3.6432,       !- X,Y,Z Vertex 2 {m}
  11.8048532392402, 7.84450215949347, 3.6432, !- X,Y,Z Vertex 3 {m}
  11.8048532392402, 7.84450215949347, 4.05735334836834; !- X,Y,Z Vertex 4 {m}

BuildingSurface:Detailed,
  Surface 11,                             !- Name
  Wall,                                   !- Surface Type
  Residential Wall Construction,          !- Construction Name
  Floor_2_Zone,                           !- Zone Name
  Floor_2,                                !- Space Name
  Outdoors,                               !- Outside Boundary Condition
  ,                                       !- Outside Boundary Condition Object
  SunExposed,                             !- Sun Exposure
  WindExposed,                            !- Wind Exposure
  ,                                       !- View Factor to Ground
  ,                                       !- Number of Vertices
  11.8048532392402, 0, 5.4864,            !- X,Y,Z Vertex 1 {m}
  0, 0, 5.4864,                           !- X,Y,Z Vertex 2 {m}
  0, 0, 2.7432,                           !- X,Y,Z Vertex 3 {m}
  11.8048532392402, 0, 2.7432;            !- X,Y,Z Vertex 4 {m}

FenestrationSurface:Detailed,
  Sub Surface 7,                          !- Name
  Window,                                 !- Surface Type
  Residential Window Construction,        !- Construction Name
  Surface 11,                             !- Building Surface Name
  ,                                       !- Outside Boundary Condition Object
  ,                                       !- View Factor to Ground
  ,                                       !- Frame and Divider Name
  ,                                       !- Multiplier
  ,                                       !- Number of Vertices
  0.0254, 0, 4.05645838091887,            !- X,Y,Z Vertex 1 {m}
  0.0254, 0, 3.6432,                      !- X,Y,Z Vertex 2 {m}
  11.7794532392402, 0, 3.6432,            !- X,Y,Z Vertex 3 {m}
  11.7794532392402, 0, 4.05645838091887;  !- X,Y,Z Vertex 4 {m}

BuildingSurface:Detailed,
  Surface 12,                             !- Name
  Roof,                                   !- Surface Type
  Residential Roof Construction,          !- Construction Name
  Floor_2_Zone,                           !- Zone Name
  Floor_2,                                !- Space Name
  Outdoors,                               !- Outside Boundary Condition
  ,                                       !- Outside Boundary Condition Object
  SunExposed,                             !- Sun Exposure
  WindExposed,                            !- Wind Exposure
  ,                                       !- View Factor to Ground
  ,                                       !- Number of Vertices
  11.8048532392402, 0, 5.4864,            !- X,Y,Z Vertex 1 {m}
  11.8048532392402, 7.86990215949347, 5.4864, !- X,Y,Z Vertex 2 {m}
  0, 7.86990215949347, 5.4864,            !- X,Y,Z Vertex 3 {m}
  0, 0, 5.4864;                           !- X,Y,Z Vertex 4 {m}

BuildingSurface:Detailed,
  Surface 7,                              !- Name
  Floor,                                  !- Surface Type
  Residential Floor Construction,         !- Construction Name
  Floor_2_Zone,                           !- Zone Name
  Floor_2,                                !- Space Name
  Ground,                                 !- Outside Boundary Condition
  ,                                       !- Outside Boundary Condition Object
  NoSun,                                  !- Sun Exposure
  NoWind,                                 !- Wind Exposure
  ,                                       !- View Factor to Ground
  ,                                       !- Number of Vertices
  0, 0, 2.7432,                           !- X,Y,Z Vertex 1 {m}
  0, 7.86990215949347, 2.7432,            !- X,Y,Z Vertex 2 {m}
  11.8048532392402, 7.86990215949347, 2.7432, !- X,Y,Z Vertex 3 {m}
  11.8048532392402, 0, 2.7432;            !- X,Y,Z Vertex 4 {m}

BuildingSurface:Detailed,
  Surface 8,                              !- Name
  Wall,                                   !- Surface Type
  Residential Wall Construction,          !- Construction Name
  Floor_2_Zone,                           !- Zone Name
  Floor_2,                                !- Space Name
  Outdoors,                               !- Outside Boundary Condition
  ,                                       !- Outside Boundary Condition Object
  SunExposed,                             !- Sun Exposure
  WindExposed,                            !- Wind Exposure
  ,                                       !- View Factor to Ground
  ,                                       !- Number of Vertices
  0, 0, 5.4864,                           !- X,Y,Z Vertex 1 {m}
  0, 7.86990215949347, 5.4864,            !- X,Y,Z Vertex 2 {m}
  0, 7.86990215949347, 2.7432,            !- X,Y,Z Vertex 3 {m}
  0, 0, 2.7432;                           !- X,Y,Z Vertex 4 {m}

FenestrationSurface:Detailed,
  Sub Surface 4,                          !- Name
  Window,                                 !- Surface Type
  Residential Window Construction,        !- Construction Name
  Surface 8,                              !- Building Surface Name
  ,                                       !- Outside Boundary Condition Object
  ,                                       !- View Factor to Ground
  ,                                       !- Frame and Divider Name
  ,                                       !- Multiplier
  ,                                       !- Number of Vertices
  0, 7.84450215949347, 4.05735334836834,  !- X,Y,Z Vertex 1 {m}
  0, 7.84450215949347, 3.6432,            !- X,Y,Z Vertex 2 {m}
  0, 0.0253999999999994, 3.6432,          !- X,Y,Z Vertex 3 {m}
  0, 0.0253999999999994, 4.05735334836834; !- X,Y,Z Vertex 4 {m}

BuildingSurface:Detailed,
  Surface 9,                              !- Name
  Wall,                                   !- Surface Type
  Residential Wall Construction,          !- Construction Name
  Floor_2_Zone,                           !- Zone Name
  Floor_2,                                !- Space Name
  Outdoors,                               !- Outside Boundary Condition
  ,                                       !- Outside Boundary Condition Object
  SunExposed,                             !- Sun Exposure
  WindExposed,                            !- Wind Exposure
  ,                                       !- View Factor to Ground
  ,                                       !- Number of Vertices
  0, 7.86990215949347, 5.4864,            !- X,Y,Z Vertex 1 {m}
  11.8048532392402, 7.86990215949347, 5.4864, !- X,Y,Z Vertex 2 {m}
  11.8048532392402, 7.86990215949347, 2.7432, !- X,Y,Z Vertex 3 {m}
  0, 7.86990215949347, 2.7432;            !- X,Y,Z Vertex 4 {m}

FenestrationSurface:Detailed,
  Sub Surface 5,                          !- Name
  Window,                                 !- Surface Type
  Residential Window Construction,        !- Construction Name
  Surface 9,                              !- Building Surface Name
  ,                                       !- Outside Boundary Condition Object
  ,                                       !- View Factor to Ground
  ,                                       !- Frame and Divider Name
  ,                                       !- Multiplier
  ,                                       !- Number of Vertices
  11.7794532392402, 7.86990215949347, 4.05645838091887, !- X,Y,Z Vertex 1 {m}
  11.7794532392402, 7.86990215949347, 3.6432, !- X,Y,Z Vertex 2 {m}
  0.0254000000000012, 7.86990215949347, 3.6432, !- X,Y,Z Vertex 3 {m}
  0.0254000000000012, 7.86990215949347, 4.05645838091887; !- X,Y,Z Vertex 4 {m}

SimulationControl,
  No,                                     !- Do Zone Sizing Calculation
  No,                                     !- Do System Sizing Calculation
  No,                                     !- Do Plant Sizing Calculation
  Yes,                                    !- Run Simulation for Sizing Periods
  Yes,                                    !- Run Simulation for Weather File Run Periods
  ,                                       !- Do HVAC Sizing Simulation for Sizing Periods
  ;                                       !- Maximum Number of HVAC Sizing Simulation Passes

ConvergenceLimits,
  1;                                      !- Minimum System Timestep {minutes}

HeatBalanceAlgorithm,
  ConductionTransferFunction,             !- Algorithm
  200;                                    !- Surface Temperature Upper Limit {C}

RunPeriod,
  Run Period 1,                           !- Name
  1,                                      !- Begin Month
  1,                                      !- Begin Day of Month
  2006,                                   !- Begin Year
  12,                                     !- End Month
  31,                                     !- End Day of Month
  2006,                                   !- End Year
  Sunday,                                 !- Day of Week for Start Day
  No,                                     !- Use Weather File Holidays and Special Days
  No,                                     !- Use Weather File Daylight Saving Period
  No,                                     !- Apply Weekend Holiday Rule
  Yes,                                    !- Use Weather File Rain Indicators
  Yes;                                    !- Use Weather File Snow Indicators

ShadowCalculation,
  PolygonClipping,                        !- Shading Calculation Method
  Periodic,                               !- Shading Calculation Update Frequency Method
  20,                                     !- Shading Calculation Update Frequency
  15000,                                  !- Maximum Figures in Shadow Overlap Calculations
  SutherlandHodgman,                      !- Polygon Clipping Algorithm
  512,                                    !- Pixel Counting Resolution
  SimpleSkyDiffuseModeling,               !- Sky Diffuse Modeling Algorithm
  No,                                     !- Output External Shading Calculation Results
  No,                                     !- Disable Self-Shading Within Shading Zone Groups
  No;                                     !- Disable Self-Shading From Shading Zone Groups to Other Zones

SurfaceConvectionAlgorithm:Inside,
  TARP;                                   !- Algorithm

SurfaceConvectionAlgorithm:Outside,
  DOE-2;                                  !- Algorithm

Sizing:Parameters,
  1.25,                                   !- Heating Sizing Factor
  1.15;                                   !- Cooling Sizing Factor

ZoneAirContaminantBalance,
  No;                                     !- Carbon Dioxide Concentration

ZoneAirHeatBalanceAlgorithm,
  ThirdOrderBackwardDifference,           !- Algorithm
  No,                                     !- Do Space Heat Balance for Sizing
  No;                                     !- Do Space Heat Balance for Simulation

ZoneCapacitanceMultiplier:ResearchSpecial,
  Zone Capacitance Multiplier Research Special, !- Name
  ,                                       !- Zone or ZoneList Name
  ,                                       !- Temperature Capacity Multiplier
  ,                                       !- Humidity Capacity Multiplier
  ,                                       !- Carbon Dioxide Capacity Multiplier
  ;                                       !- Generic Contaminant Capacity Multiplier

GlobalGeometryRules,
  UpperLeftCorner,                        !- Starting Vertex Position
  Counterclockwise,                       !- Vertex Entry Direction
  Relative,                               !- Coordinate System
  Relative,                               !- Daylighting Reference Point Coordinate System
  Relative;                               !- Rectangular Surface Coordinate System

Material,
  Residential Door Construction Material, !- Name
  MediumRough,                            !- Roughness
  0.1,                                    !- Thickness {m}
  0.2,                                    !- Conductivity {W/m-K}
  800,                                    !- Density {kg/m3}
  1000,                                   !- Specific Heat {J/kg-K}
  0.9,                                    !- Thermal Absorptance
  0.7,                                    !- Solar Absorptance
  0.7;                                    !- Visible Absorptance

Material,
  Residential Floor Construction Material, !- Name
  MediumRough,                            !- Roughness
  0.1,                                    !- Thickness {m}
  0.05,                                   !- Conductivity {W/m-K}
  800,                                    !- Density {kg/m3}
  1000,                                   !- Specific Heat {J/kg-K}
  0.9,                                    !- Thermal Absorptance
  0.7,                                    !- Solar Absorptance
  0.7;                                    !- Visible Absorptance

Material,
  Residential Interior Floor Construction Material, !- Name
  MediumRough,                            !- Roughness
  0.1,                                    !- Thickness {m}
  0.0666666666666667,                     !- Conductivity {W/m-K}
  800,                                    !- Density {kg/m3}
  1000,                                   !- Specific Heat {J/kg-K}
  0.9,                                    !- Thermal Absorptance
  0.7,                                    !- Solar Absorptance
  0.7;                                    !- Visible Absorptance

Material,
  Residential Interior Wall Construction Material, !- Name
  MediumRough,                            !- Roughness
  0.1,                                    !- Thickness {m}
  0.1,                                    !- Conductivity {W/m-K}
  800,                                    !- Density {kg/m3}
  1000,                                   !- Specific Heat {J/kg-K}
  0.9,                                    !- Thermal Absorptance
  0.7,                                    !- Solar Absorptance
  0.7;                                    !- Visible Absorptance

Material,
  Residential Roof Construction Material, !- Name
  MediumRough,                            !- Roughness
  0.1,                                    !- Thickness {m}
  0.0149427982660881,                     !- Conductivity {W/m-K}
  800,                                    !- Density {kg/m3}
  1000,                                   !- Specific Heat {J/kg-K}
  0.9,                                    !- Thermal Absorptance
  0.7,                                    !- Solar Absorptance
  0.7;                                    !- Visible Absorptance

Material,
  Residential Wall Construction Material, !- Name
  MediumRough,                            !- Roughness
  0.1,                                    !- Thickness {m}
  0.0436789487777961,                     !- Conductivity {W/m-K}
  800,                                    !- Density {kg/m3}
  1000,                                   !- Specific Heat {J/kg-K}
  0.9,                                    !- Thermal Absorptance
  0.7,                                    !- Solar Absorptance
  0.7;                                    !- Visible Absorptance

WindowMaterial:SimpleGlazingSystem,
  Residential Window Construction Glazing, !- Name
  1.87382690256745,                       !- U-Factor {W/m2-K}
  0.45;                                   !- Solar Heat Gain Coefficient

Construction,
  Residential Door Construction,          !- Name
  Residential Door Construction Material; !- Layer 1

Construction,
  Residential Floor Construction,         !- Name
  Residential Floor Construction Material; !- Layer 1

Construction,
  Residential Interior Floor Construction, !- Name
  Residential Interior Floor Construction Material; !- Layer 1

Construction,
  Residential Interior Wall Construction, !- Name
  Residential Interior Wall Construction Material; !- Layer 1

Construction,
  Residential Roof Construction,          !- Name
  Residential Roof Construction Material; !- Layer 1

Construction,
  Residential Wall Construction,          !- Name
  Residential Wall Construction Material; !- Layer 1

Construction,
  Residential Window Construction,        !- Name
  Residential Window Construction Glazing; !- Layer 1

Schedule:Constant,
  Always Off Discrete,                    !- Name
  OnOff 2,                                !- Schedule Type Limits Name
  0;                                      !- Hourly Value

Schedule:Constant,
  Always On Continuous,                   !- Name
  Fractional 1,                           !- Schedule Type Limits Name
  1;                                      !- Hourly Value

ScheduleTypeLimits,
  ActivityLevel 12,                       !- Name
  0,                                      !- Lower Limit Value {BasedOnField A3}
  ,                                       !- Upper Limit Value {BasedOnField A3}
  Continuous,                             !- Numeric Type
  activitylevel;                          !- Unit Type

ScheduleTypeLimits,
  Capacity,                               !- Name
  0,                                      !- Lower Limit Value {BasedOnField A3}
  ,                                       !- Upper Limit Value {BasedOnField A3}
  Continuous,                             !- Numeric Type
  capacity;                               !- Unit Type

ScheduleTypeLimits,
  Any Number;                             !- Name

ScheduleTypeLimits,
  DeltaTemperature,                       !- Name
  ,                                       !- Lower Limit Value {BasedOnField A3}
  ,                                       !- Upper Limit Value {BasedOnField A3}
  Continuous,                             !- Numeric Type
  deltatemperature;                       !- Unit Type

ScheduleTypeLimits,
  Dimensionless,                          !- Name
  ,                                       !- Lower Limit Value {BasedOnField A3}
  ,                                       !- Upper Limit Value {BasedOnField A3}
  Continuous;                             !- Numeric Type

ScheduleTypeLimits,
  Dimensionless 1,                        !- Name
  -1,                                     !- Lower Limit Value {BasedOnField A3}
  1,                                      !- Upper Limit Value {BasedOnField A3}
  Continuous;                             !- Numeric Type

ScheduleTypeLimits,
  Dimensionless 2,                        !- Name
  0,                                      !- Lower Limit Value {BasedOnField A3}
  ,                                       !- Upper Limit Value {BasedOnField A3}
  Continuous;                             !- Numeric Type

ScheduleTypeLimits,
  Dimensionless 3,                        !- Name
  0.1,                                    !- Lower Limit Value {BasedOnField A3}
  1000,                                   !- Upper Limit Value {BasedOnField A3}
  Continuous;                             !- Numeric Type

ScheduleTypeLimits,
  Dimensionless 4,                        !- Name
  0,                                      !- Lower Limit Value {BasedOnField A3}
  1,                                      !- Upper Limit Value {BasedOnField A3}
  Continuous,                             !- Numeric Type
  dimensionless;                          !- Unit Type

ScheduleTypeLimits,
  Fractional 1,                           !- Name
  0,                                      !- Lower Limit Value {BasedOnField A3}
  1,                                      !- Upper Limit Value {BasedOnField A3}
  Continuous;                             !- Numeric Type

ScheduleTypeLimits,
  Integer,                                !- Name
  0,                                      !- Lower Limit Value {BasedOnField A3}
  ,                                       !- Upper Limit Value {BasedOnField A3}
  Discrete;                               !- Numeric Type

ScheduleTypeLimits,
  Integer 1,                              !- Name
  0,                                      !- Lower Limit Value {BasedOnField A3}
  4,                                      !- Upper Limit Value {BasedOnField A3}
  Discrete;                               !- Numeric Type

ScheduleTypeLimits,
  OnOff,                                  !- Name
  0,                                      !- Lower Limit Value {BasedOnField A3}
  1,                                      !- Upper Limit Value {BasedOnField A3}
  Discrete,                               !- Numeric Type
  dimensionless;                          !- Unit Type

ScheduleTypeLimits,
  OnOff 1,                                !- Name
  0,                                      !- Lower Limit Value {BasedOnField A3}
  1,                                      !- Upper Limit Value {BasedOnField A3}
  Discrete,                               !- Numeric Type
  availability;                           !- Unit Type

ScheduleTypeLimits,
  OnOff 2,                                !- Name
  0,                                      !- Lower Limit Value {BasedOnField A3}
  1,                                      !- Upper Limit Value {BasedOnField A3}
  Discrete,                               !- Numeric Type
  availability;                           !- Unit Type

ScheduleTypeLimits,
  Percent,                                !- Name
  0,                                      !- Lower Limit Value {BasedOnField A3}
  100,                                    !- Upper Limit Value {BasedOnField A3}
  Continuous,                             !- Numeric Type
  percent;                                !- Unit Type

ScheduleTypeLimits,
  Temperature,                            !- Name
  ,                                       !- Lower Limit Value {BasedOnField A3}
  ,                                       !- Upper Limit Value {BasedOnField A3}
  Continuous,                             !- Numeric Type
  temperature;                            !- Unit Type

ScheduleTypeLimits,
  Temperature 1,                          !- Name
  ,                                       !- Lower Limit Value {BasedOnField A3}
  ,                                       !- Upper Limit Value {BasedOnField A3}
  Continuous,                             !- Numeric Type
  temperature;                            !- Unit Type

ScheduleTypeLimits,
  Temperature 2,                          !- Name
  ,                                       !- Lower Limit Value {BasedOnField A3}
  0,                                      !- Upper Limit Value {BasedOnField A3}
  Continuous,                             !- Numeric Type
  temperature;                            !- Unit Type

ScheduleTypeLimits,
  Temperature 3,                          !- Name
  0,                                      !- Lower Limit Value {BasedOnField A3}
  ,                                       !- Upper Limit Value {BasedOnField A3}
  Continuous,                             !- Numeric Type
  temperature;                            !- Unit Type

ScheduleTypeLimits,
  Temperature 4,                          !- Name
  0,                                      !- Lower Limit Value {BasedOnField A3}
  100,                                    !- Upper Limit Value {BasedOnField A3}
  Continuous,                             !- Numeric Type
  temperature;                            !- Unit Type

ScheduleTypeLimits,
  Velocity,                               !- Name
  0,                                      !- Lower Limit Value {BasedOnField A3}
  ,                                       !- Upper Limit Value {BasedOnField A3}
  Continuous,                             !- Numeric Type
  velocity;                               !- Unit Type

Schedule:Constant,
  Ambient Temperature Schedule,           !- Name
  Temperature,                            !- Schedule Type Limits Name
  22;                                     !- Hourly Value

Schedule:Constant,
  Residential Hot Water Target Temperature Schedule, !- Name
  Temperature,                            !- Schedule Type Limits Name
  43.3;                                   !- Hourly Value

Schedule:Constant,
  Residential Infiltration Schedule,      !- Name
  Fractional,                             !- Schedule Type Limits Name
  1;                                      !- Hourly Value

Schedule:Constant,
  Water Heater Setpoint Temperature Schedule, !- Name
  Temperature,                            !- Schedule Type Limits Name
  60;                                     !- Hourly Value

Schedule:Day:Interval,
  Residential Cooling Setpoint Default,   !- Name
  Temperature 1,                          !- Schedule Type Limits Name
  No,                                     !- Interpolate to Timestep
  06:00,                                  !- Time 1 {hh:mm}
  27,                                     !- Value Until Time 1
  09:00,                                  !- Time 2 {hh:mm}
  24,                                     !- Value Until Time 2
  17:00,                                  !- Time 3 {hh:mm}
  27,                                     !- Value Until Time 3
  22:00,                                  !- Time 4 {hh:mm}
  24,                                     !- Value Until Time 4
  24:00,                                  !- Time 5 {hh:mm}
  27;                                     !- Value Until Time 5

Schedule:Day:Interval,
  Residential Heating Setpoint Default,   !- Name
  Temperature 1,                          !- Schedule Type Limits Name
  No,                                     !- Interpolate to Timestep
  06:00,                                  !- Time 1 {hh:mm}
  18,                                     !- Value Until Time 1
  09:00,                                  !- Time 2 {hh:mm}
  20,                                     !- Value Until Time 2
  17:00,                                  !- Time 3 {hh:mm}
  18,                                     !- Value Until Time 3
  22:00,                                  !- Time 4 {hh:mm}
  20,                                     !- Value Until Time 4
  24:00,                                  !- Time 5 {hh:mm}
  18;                                     !- Value Until Time 5

Schedule:Day:Interval,
  Residential Hot Water Flow Rate Default, !- Name
  Fractional,                             !- Schedule Type Limits Name
  No,                                     !- Interpolate to Timestep
  05:00,                                  !- Time 1 {hh:mm}
  0,                                      !- Value Until Time 1
  07:00,                                  !- Time 2 {hh:mm}
  0.3,                                    !- Value Until Time 2
  09:00,                                  !- Time 3 {hh:mm}
  0.5,                                    !- Value Until Time 3
  17:00,                                  !- Time 4 {hh:mm}
  0.1,                                    !- Value Until Time 4
  21:00,                                  !- Time 5 {hh:mm}
  0.4,                                    !- Value Until Time 5
  23:00,                                  !- Time 6 {hh:mm}
  0.2,                                    !- Value Until Time 6
  24:00,                                  !- Time 7 {hh:mm}
  0;                                      !- Value Until Time 7

Schedule:Day:Interval,
  Schedule Day 4,                         !- Name
  Fractional,                             !- Schedule Type Limits Name
  No,                                     !- Interpolate to Timestep
  07:00,                                  !- Time 1 {hh:mm}
  0,                                      !- Value Until Time 1
  10:00,                                  !- Time 2 {hh:mm}
  0.4,                                    !- Value Until Time 2
  12:00,                                  !- Time 3 {hh:mm}
  0.3,                                    !- Value Until Time 3
  18:00,                                  !- Time 4 {hh:mm}
  0.2,                                    !- Value Until Time 4
  22:00,                                  !- Time 5 {hh:mm}
  0.3,                                    !- Value Until Time 5
  24:00,                                  !- Time 6 {hh:mm}
  0.1;                                    !- Value Until Time 6

Schedule:Day:Interval,
  Schedule Day 5,                         !- Name
  Temperature,                            !- Schedule Type Limits Name
  No,                                     !- Interpolate to Timestep
  24:00,                                  !- Time 1 {hh:mm}
  22;                                     !- Value Until Time 1

Schedule:Day:Interval,
  Schedule Day 6,                         !- Name
  Temperature,                            !- Schedule Type Limits Name
  No,                                     !- Interpolate to Timestep
  24:00,                                  !- Time 1 {hh:mm}
  60;                                     !- Value Until Time 1

Schedule:Day:Interval,
  Schedule Day 7,                         !- Name
  Temperature 1,                          !- Schedule Type Limits Name
  No,                                     !- Interpolate to Timestep
  06:00,                                  !- Time 1 {hh:mm}
  18,                                     !- Value Until Time 1
  22:00,                                  !- Time 2 {hh:mm}
  20,                                     !- Value Until Time 2
  24:00,                                  !- Time 3 {hh:mm}
  18;                                     !- Value Until Time 3

Schedule:Day:Interval,
  Schedule Day 8,                         !- Name
  Temperature 1,                          !- Schedule Type Limits Name
  No,                                     !- Interpolate to Timestep
  06:00,                                  !- Time 1 {hh:mm}
  27,                                     !- Value Until Time 1
  22:00,                                  !- Time 2 {hh:mm}
  24,                                     !- Value Until Time 2
  24:00,                                  !- Time 3 {hh:mm}
  27;                                     !- Value Until Time 3

Schedule:Day:Interval,
  Schedule Day 9,                         !- Name
  Dimensionless,                          !- Schedule Type Limits Name
  No,                                     !- Interpolate to Timestep
  24:00,                                  !- Time 1 {hh:mm}
  0.3;                                    !- Value Until Time 1

Schedule:Week:Daily,
  Residential Cooling Setpoint Week Rule - Jan1-Dec31, !- Name
  Schedule Day 8,                         !- Sunday Schedule:Day Name
  Residential Cooling Setpoint Default,   !- Monday Schedule:Day Name
  Residential Cooling Setpoint Default,   !- Tuesday Schedule:Day Name
  Residential Cooling Setpoint Default,   !- Wednesday Schedule:Day Name
  Residential Cooling Setpoint Default,   !- Thursday Schedule:Day Name
  Residential Cooling Setpoint Default,   !- Friday Schedule:Day Name
  Schedule Day 8,                         !- Saturday Schedule:Day Name
  Residential Cooling Setpoint Default,   !- Holiday Schedule:Day Name
  Residential Cooling Setpoint Default,   !- SummerDesignDay Schedule:Day Name
  Residential Cooling Setpoint Default,   !- WinterDesignDay Schedule:Day Name
  Residential Cooling Setpoint Default,   !- CustomDay1 Schedule:Day Name
  Residential Cooling Setpoint Default;   !- CustomDay2 Schedule:Day Name

Schedule:Year,
  Residential Cooling Setpoint,           !- Name
  Temperature 1,                          !- Schedule Type Limits Name
  Residential Cooling Setpoint Week Rule - Jan1-Dec31, !- Schedule:Week Name 1
  1,                                      !- Start Month 1
  1,                                      !- Start Day 1
  12,                                     !- End Month 1
  31;                                     !- End Day 1

Schedule:Week:Daily,
  Residential Heating Setpoint Week Rule - Jan1-Dec31, !- Name
  Schedule Day 7,                         !- Sunday Schedule:Day Name
  Residential Heating Setpoint Default,   !- Monday Schedule:Day Name
  Residential Heating Setpoint Default,   !- Tuesday Schedule:Day Name
  Residential Heating Setpoint Default,   !- Wednesday Schedule:Day Name
  Residential Heating Setpoint Default,   !- Thursday Schedule:Day Name
  Residential Heating Setpoint Default,   !- Friday Schedule:Day Name
  Schedule Day 7,                         !- Saturday Schedule:Day Name
  Residential Heating Setpoint Default,   !- Holiday Schedule:Day Name
  Residential Heating Setpoint Default,   !- SummerDesignDay Schedule:Day Name
  Residential Heating Setpoint Default,   !- WinterDesignDay Schedule:Day Name
  Residential Heating Setpoint Default,   !- CustomDay1 Schedule:Day Name
  Residential Heating Setpoint Default;   !- CustomDay2 Schedule:Day Name

Schedule:Year,
  Residential Heating Setpoint,           !- Name
  Temperature 1,                          !- Schedule Type Limits Name
  Residential Heating Setpoint Week Rule - Jan1-Dec31, !- Schedule:Week Name 1
  1,                                      !- Start Month 1
  1,                                      !- Start Day 1
  12,                                     !- End Month 1
  31;                                     !- End Day 1

Schedule:Week:Daily,
  Residential Hot Water Flow Rate Schedule Week Rule - Jan1-Dec31, !- Name
  Schedule Day 4,                         !- Sunday Schedule:Day Name
  Residential Hot Water Flow Rate Default, !- Monday Schedule:Day Name
  Residential Hot Water Flow Rate Default, !- Tuesday Schedule:Day Name
  Residential Hot Water Flow Rate Default, !- Wednesday Schedule:Day Name
  Residential Hot Water Flow Rate Default, !- Thursday Schedule:Day Name
  Residential Hot Water Flow Rate Default, !- Friday Schedule:Day Name
  Schedule Day 4,                         !- Saturday Schedule:Day Name
  Residential Hot Water Flow Rate Default, !- Holiday Schedule:Day Name
  Residential Hot Water Flow Rate Default, !- SummerDesignDay Schedule:Day Name
  Residential Hot Water Flow Rate Default, !- WinterDesignDay Schedule:Day Name
  Residential Hot Water Flow Rate Default, !- CustomDay1 Schedule:Day Name
  Residential Hot Water Flow Rate Default; !- CustomDay2 Schedule:Day Name

Schedule:Year,
  Residential Hot Water Flow Rate Schedule, !- Name
  Fractional,                             !- Schedule Type Limits Name
  Residential Hot Water Flow Rate Schedule Week Rule - Jan1-Dec31, !- Schedule:Week Name 1
  1,                                      !- Start Month 1
  1,                                      !- Start Day 1
  12,                                     !- End Month 1
  31;                                     !- End Day 1

Schedule:Week:Daily,
  Schedule Ruleset 1 Week Rule - Jan1-Dec31, !- Name
  Schedule Day 5,                         !- Sunday Schedule:Day Name
  Schedule Day 5,                         !- Monday Schedule:Day Name
  Schedule Day 5,                         !- Tuesday Schedule:Day Name
  Schedule Day 5,                         !- Wednesday Schedule:Day Name
  Schedule Day 5,                         !- Thursday Schedule:Day Name
  Schedule Day 5,                         !- Friday Schedule:Day Name
  Schedule Day 5,                         !- Saturday Schedule:Day Name
  Schedule Day 5,                         !- Holiday Schedule:Day Name
  Schedule Day 5,                         !- SummerDesignDay Schedule:Day Name
  Schedule Day 5,                         !- WinterDesignDay Schedule:Day Name
  Schedule Day 5,                         !- CustomDay1 Schedule:Day Name
  Schedule Day 5;                         !- CustomDay2 Schedule:Day Name

Schedule:Year,
  Schedule Ruleset 1,                     !- Name
  Temperature,                            !- Schedule Type Limits Name
  Schedule Ruleset 1 Week Rule - Jan1-Dec31, !- Schedule:Week Name 1
  1,                                      !- Start Month 1
  1,                                      !- Start Day 1
  12,                                     !- End Month 1
  31;                                     !- End Day 1

Schedule:Week:Daily,
  Schedule Ruleset 2 Week Rule - Jan1-Dec31, !- Name
  Schedule Day 6,                         !- Sunday Schedule:Day Name
  Schedule Day 6,                         !- Monday Schedule:Day Name
  Schedule Day 6,                         !- Tuesday Schedule:Day Name
  Schedule Day 6,                         !- Wednesday Schedule:Day Name
  Schedule Day 6,                         !- Thursday Schedule:Day Name
  Schedule Day 6,                         !- Friday Schedule:Day Name
  Schedule Day 6,                         !- Saturday Schedule:Day Name
  Schedule Day 6,                         !- Holiday Schedule:Day Name
  Schedule Day 6,                         !- SummerDesignDay Schedule:Day Name
  Schedule Day 6,                         !- WinterDesignDay Schedule:Day Name
  Schedule Day 6,                         !- CustomDay1 Schedule:Day Name
  Schedule Day 6;                         !- CustomDay2 Schedule:Day Name

Schedule:Year,
  Schedule Ruleset 2,                     !- Name
  Temperature,                            !- Schedule Type Limits Name
  Schedule Ruleset 2 Week Rule - Jan1-Dec31, !- Schedule:Week Name 1
  1,                                      !- Start Month 1
  1,                                      !- Start Day 1
  12,                                     !- End Month 1
  31;                                     !- End Day 1

Schedule:Week:Daily,
  Schedule Ruleset 3 Week Rule - Jan1-Dec31, !- Name
  Schedule Day 9,                         !- Sunday Schedule:Day Name
  Schedule Day 9,                         !- Monday Schedule:Day Name
  Schedule Day 9,                         !- Tuesday Schedule:Day Name
  Schedule Day 9,                         !- Wednesday Schedule:Day Name
  Schedule Day 9,                         !- Thursday Schedule:Day Name
  Schedule Day 9,                         !- Friday Schedule:Day Name
  Schedule Day 9,                         !- Saturday Schedule:Day Name
  Schedule Day 9,                         !- Holiday Schedule:Day Name
  Schedule Day 9,                         !- SummerDesignDay Schedule:Day Name
  Schedule Day 9,                         !- WinterDesignDay Schedule:Day Name
  Schedule Day 9,                         !- CustomDay1 Schedule:Day Name
  Schedule Day 9;                         !- CustomDay2 Schedule:Day Name

Schedule:Year,
  Schedule Ruleset 3,                     !- Name
  Dimensionless,                          !- Schedule Type Limits Name
  Schedule Ruleset 3 Week Rule - Jan1-Dec31, !- Schedule:Week Name 1
  1,                                      !- Start Month 1
  1,                                      !- Start Day 1
  12,                                     !- End Month 1
  31;                                     !- End Day 1

OutdoorAir:Node,
  Model Outdoor Air Node;                 !- Name

OutputControl:ReportingTolerances,
  0.2,                                    !- Tolerance for Time Heating Setpoint Not Met {deltaC}
  0.2;                                    !- Tolerance for Time Cooling Setpoint Not Met {deltaC}

OutputControl:ResilienceSummaries,
  Simplified;                             !- Heat Index Algorithm

Output:JSON,
  TimeSeriesAndTabular,                   !- Option Type
  No,                                     !- Output JSON
  No,                                     !- Output CBOR
  No;                                     !- Output MessagePack

Output:Table:SummaryReports,
  AllSummary;                             !- Report Name 1

Site:Location,
  SEVILLA,                                !- Name
  37.42,                                  !- Latitude {deg}
  -5.9,                                   !- Longitude {deg}
  1,                                      !- Time Zone {hr}
  31,                                     !- Elevation {m}
  No;                                     !- Keep Site Location Information

SizingPeriod:DesignDay,
  SEVILLA Ann Clg .4% Condns DB=>MWB,     !- Name
  7,                                      !- Month
  21,                                     !- Day of Month
  SummerDesignDay,                        !- Day Type
  39.9,                                   !- Maximum Dry-Bulb Temperature {C}
  16.4,                                   !- Daily Dry-Bulb Temperature Range {deltaC}
  DefaultMultipliers,                     !- Dry-Bulb Temperature Range Modifier Type
  ,                                       !- Dry-Bulb Temperature Range Modifier Day Schedule Name
  Wetbulb,                                !- Humidity Condition Type
  23.8,                                   !- Wetbulb or DewPoint at Maximum Dry-Bulb {C}
  ,                                       !- Humidity Condition Day Schedule Name
  ,                                       !- Humidity Ratio at Maximum Dry-Bulb {kgWater/kgDryAir}
  ,                                       !- Enthalpy at Maximum Dry-Bulb {J/kg}
  ,                                       !- Daily Wet-Bulb Temperature Range {deltaC}
  100953,                                 !- Barometric Pressure {Pa}
  3.4,                                    !- Wind Speed {m/s}
  240,                                    !- Wind Direction {deg}
  No,                                     !- Rain Indicator
  No,                                     !- Snow Indicator
  No,                                     !- Daylight Saving Time Indicator
  ASHRAETau,                              !- Solar Model Indicator
  ,                                       !- Beam Solar Day Schedule Name
  ,                                       !- Diffuse Solar Day Schedule Name
  0.447,                                  !- ASHRAE Clear Sky Optical Depth for Beam Irradiance (taub) {dimensionless}
  2.027,                                  !- ASHRAE Clear Sky Optical Depth for Diffuse Irradiance (taud) {dimensionless}
  ,                                       !- Sky Clearness
  ,                                       !- Maximum Number Warmup Days
  FullResetAtBeginEnvironment;            !- Begin Environment Reset Mode

SizingPeriod:DesignDay,
  SEVILLA Ann Clg .4% Condns DP=>MDB,     !- Name
  7,                                      !- Month
  21,                                     !- Day of Month
  SummerDesignDay,                        !- Day Type
  28.9,                                   !- Maximum Dry-Bulb Temperature {C}
  16.4,                                   !- Daily Dry-Bulb Temperature Range {deltaC}
  DefaultMultipliers,                     !- Dry-Bulb Temperature Range Modifier Type
  ,                                       !- Dry-Bulb Temperature Range Modifier Day Schedule Name
  Dewpoint,                               !- Humidity Condition Type
  22,                                     !- Wetbulb or DewPoint at Maximum Dry-Bulb {C}
  ,                                       !- Humidity Condition Day Schedule Name
  ,                                       !- Humidity Ratio at Maximum Dry-Bulb {kgWater/kgDryAir}
  ,                                       !- Enthalpy at Maximum Dry-Bulb {J/kg}
  ,                                       !- Daily Wet-Bulb Temperature Range {deltaC}
  100953,                                 !- Barometric Pressure {Pa}
  3.4,                                    !- Wind Speed {m/s}
  240,                                    !- Wind Direction {deg}
  No,                                     !- Rain Indicator
  No,                                     !- Snow Indicator
  No,                                     !- Daylight Saving Time Indicator
  ASHRAETau,                              !- Solar Model Indicator
  ,                                       !- Beam Solar Day Schedule Name
  ,                                       !- Diffuse Solar Day Schedule Name
  0.447,                                  !- ASHRAE Clear Sky Optical Depth for Beam Irradiance (taub) {dimensionless}
  2.027,                                  !- ASHRAE Clear Sky Optical Depth for Diffuse Irradiance (taud) {dimensionless}
  ,                                       !- Sky Clearness
  ,                                       !- Maximum Number Warmup Days
  FullResetAtBeginEnvironment;            !- Begin Environment Reset Mode

SizingPeriod:DesignDay,
  SEVILLA Ann Clg .4% Condns Enth=>MDB,   !- Name
  7,                                      !- Month
  21,                                     !- Day of Month
  SummerDesignDay,                        !- Day Type
  36.4,                                   !- Maximum Dry-Bulb Temperature {C}
  16.4,                                   !- Daily Dry-Bulb Temperature Range {deltaC}
  DefaultMultipliers,                     !- Dry-Bulb Temperature Range Modifier Type
  ,                                       !- Dry-Bulb Temperature Range Modifier Day Schedule Name
  Enthalpy,                               !- Humidity Condition Type
  ,                                       !- Wetbulb or DewPoint at Maximum Dry-Bulb {C}
  ,                                       !- Humidity Condition Day Schedule Name
  ,                                       !- Humidity Ratio at Maximum Dry-Bulb {kgWater/kgDryAir}
  76300,                                  !- Enthalpy at Maximum Dry-Bulb {J/kg}
  ,                                       !- Daily Wet-Bulb Temperature Range {deltaC}
  100953,                                 !- Barometric Pressure {Pa}
  3.4,                                    !- Wind Speed {m/s}
  240,                                    !- Wind Direction {deg}
  No,                                     !- Rain Indicator
  No,                                     !- Snow Indicator
  No,                                     !- Daylight Saving Time Indicator
  ASHRAETau,                              !- Solar Model Indicator
  ,                                       !- Beam Solar Day Schedule Name
  ,                                       !- Diffuse Solar Day Schedule Name
  0.447,                                  !- ASHRAE Clear Sky Optical Depth for Beam Irradiance (taub) {dimensionless}
  2.027,                                  !- ASHRAE Clear Sky Optical Depth for Diffuse Irradiance (taud) {dimensionless}
  ,                                       !- Sky Clearness
  ,                                       !- Maximum Number Warmup Days
  FullResetAtBeginEnvironment;            !- Begin Environment Reset Mode

SizingPeriod:DesignDay,
  SEVILLA Ann Clg .4% Condns WB=>MDB,     !- Name
  7,                                      !- Month
  21,                                     !- Day of Month
  SummerDesignDay,                        !- Day Type
  36.6,                                   !- Maximum Dry-Bulb Temperature {C}
  16.4,                                   !- Daily Dry-Bulb Temperature Range {deltaC}
  DefaultMultipliers,                     !- Dry-Bulb Temperature Range Modifier Type
  ,                                       !- Dry-Bulb Temperature Range Modifier Day Schedule Name
  Wetbulb,                                !- Humidity Condition Type
  25.1,                                   !- Wetbulb or DewPoint at Maximum Dry-Bulb {C}
  ,                                       !- Humidity Condition Day Schedule Name
  ,                                       !- Humidity Ratio at Maximum Dry-Bulb {kgWater/kgDryAir}
  ,                                       !- Enthalpy at Maximum Dry-Bulb {J/kg}
  ,                                       !- Daily Wet-Bulb Temperature Range {deltaC}
  100953,                                 !- Barometric Pressure {Pa}
  3.4,                                    !- Wind Speed {m/s}
  240,                                    !- Wind Direction {deg}
  No,                                     !- Rain Indicator
  No,                                     !- Snow Indicator
  No,                                     !- Daylight Saving Time Indicator
  ASHRAETau,                              !- Solar Model Indicator
  ,                                       !- Beam Solar Day Schedule Name
  ,                                       !- Diffuse Solar Day Schedule Name
  0.447,                                  !- ASHRAE Clear Sky Optical Depth for Beam Irradiance (taub) {dimensionless}
  2.027,                                  !- ASHRAE Clear Sky Optical Depth for Diffuse Irradiance (taud) {dimensionless}
  ,                                       !- Sky Clearness
  ,                                       !- Maximum Number Warmup Days
  FullResetAtBeginEnvironment;            !- Begin Environment Reset Mode

SizingPeriod:DesignDay,
  SEVILLA Ann Htg 99.6% Condns DB,        !- Name
  1,                                      !- Month
  21,                                     !- Day of Month
  WinterDesignDay,                        !- Day Type
  1.3,                                    !- Maximum Dry-Bulb Temperature {C}
  0,                                      !- Daily Dry-Bulb Temperature Range {deltaC}
  DefaultMultipliers,                     !- Dry-Bulb Temperature Range Modifier Type
  ,                                       !- Dry-Bulb Temperature Range Modifier Day Schedule Name
  Wetbulb,                                !- Humidity Condition Type
  1.3,                                    !- Wetbulb or DewPoint at Maximum Dry-Bulb {C}
  ,                                       !- Humidity Condition Day Schedule Name
  ,                                       !- Humidity Ratio at Maximum Dry-Bulb {kgWater/kgDryAir}
  ,                                       !- Enthalpy at Maximum Dry-Bulb {J/kg}
  ,                                       !- Daily Wet-Bulb Temperature Range {deltaC}
  100953,                                 !- Barometric Pressure {Pa}
  1.3,                                    !- Wind Speed {m/s}
  30,                                     !- Wind Direction {deg}
  No,                                     !- Rain Indicator
  No,                                     !- Snow Indicator
  No,                                     !- Daylight Saving Time Indicator
  ASHRAEClearSky,                         !- Solar Model Indicator
  ,                                       !- Beam Solar Day Schedule Name
  ,                                       !- Diffuse Solar Day Schedule Name
  ,                                       !- ASHRAE Clear Sky Optical Depth for Beam Irradiance (taub) {dimensionless}
  ,                                       !- ASHRAE Clear Sky Optical Depth for Diffuse Irradiance (taud) {dimensionless}
  0,                                      !- Sky Clearness
  ,                                       !- Maximum Number Warmup Days
  FullResetAtBeginEnvironment;            !- Begin Environment Reset Mode

SizingPeriod:DesignDay,
  SEVILLA Ann Htg Wind 99.6% Condns WS=>MCDB, !- Name
  1,                                      !- Month
  21,                                     !- Day of Month
  WinterDesignDay,                        !- Day Type
  13.5,                                   !- Maximum Dry-Bulb Temperature {C}
  0,                                      !- Daily Dry-Bulb Temperature Range {deltaC}
  DefaultMultipliers,                     !- Dry-Bulb Temperature Range Modifier Type
  ,                                       !- Dry-Bulb Temperature Range Modifier Day Schedule Name
  Wetbulb,                                !- Humidity Condition Type
  13.5,                                   !- Wetbulb or DewPoint at Maximum Dry-Bulb {C}
  ,                                       !- Humidity Condition Day Schedule Name
  ,                                       !- Humidity Ratio at Maximum Dry-Bulb {kgWater/kgDryAir}
  ,                                       !- Enthalpy at Maximum Dry-Bulb {J/kg}
  ,                                       !- Daily Wet-Bulb Temperature Range {deltaC}
  100953,                                 !- Barometric Pressure {Pa}
  10.4,                                   !- Wind Speed {m/s}
  30,                                     !- Wind Direction {deg}
  No,                                     !- Rain Indicator
  No,                                     !- Snow Indicator
  No,                                     !- Daylight Saving Time Indicator
  ASHRAEClearSky,                         !- Solar Model Indicator
  ,                                       !- Beam Solar Day Schedule Name
  ,                                       !- Diffuse Solar Day Schedule Name
  ,                                       !- ASHRAE Clear Sky Optical Depth for Beam Irradiance (taub) {dimensionless}
  ,                                       !- ASHRAE Clear Sky Optical Depth for Diffuse Irradiance (taud) {dimensionless}
  0,                                      !- Sky Clearness
  ,                                       !- Maximum Number Warmup Days
  FullResetAtBeginEnvironment;            !- Begin Environment Reset Mode

SizingPeriod:DesignDay,
  SEVILLA Ann Hum_n 99.6% Condns DP=>MCDB, !- Name
  1,                                      !- Month
  21,                                     !- Day of Month
  WinterDesignDay,                        !- Day Type
  8,                                      !- Maximum Dry-Bulb Temperature {C}
  0,                                      !- Daily Dry-Bulb Temperature Range {deltaC}
  DefaultMultipliers,                     !- Dry-Bulb Temperature Range Modifier Type
  ,                                       !- Dry-Bulb Temperature Range Modifier Day Schedule Name
  Dewpoint,                               !- Humidity Condition Type
  -4.7,                                   !- Wetbulb or DewPoint at Maximum Dry-Bulb {C}
  ,                                       !- Humidity Condition Day Schedule Name
  ,                                       !- Humidity Ratio at Maximum Dry-Bulb {kgWater/kgDryAir}
  ,                                       !- Enthalpy at Maximum Dry-Bulb {J/kg}
  ,                                       !- Daily Wet-Bulb Temperature Range {deltaC}
  100953,                                 !- Barometric Pressure {Pa}
  1.3,                                    !- Wind Speed {m/s}
  30,                                     !- Wind Direction {deg}
  No,                                     !- Rain Indicator
  No,                                     !- Snow Indicator
  No,                                     !- Daylight Saving Time Indicator
  ASHRAEClearSky,                         !- Solar Model Indicator
  ,                                       !- Beam Solar Day Schedule Name
  ,                                       !- Diffuse Solar Day Schedule Name
  ,                                       !- ASHRAE Clear Sky Optical Depth for Beam Irradiance (taub) {dimensionless}
  ,                                       !- ASHRAE Clear Sky Optical Depth for Diffuse Irradiance (taud) {dimensionless}
  0,                                      !- Sky Clearness
  ,                                       !- Maximum Number Warmup Days
  FullResetAtBeginEnvironment;            !- Begin Environment Reset Mode

Output:Variable,
  *,                                      !- Key Value
  Zone Operative Temperature,             !- Variable Name
  Hourly;                                 !- Reporting Frequency

Output:Variable,
  *,                                      !- Key Value
  Zone Thermal Comfort Operative Temperature, !- Variable Name
  Hourly;                                 !- Reporting Frequency

Output:Variable,
  *,                                      !- Key Value
  Zone Thermal Comfort Fanger Model PMV,  !- Variable Name
  Hourly;                                 !- Reporting Frequency

OutputControl:Table:Style,
  HTML;                                   !- Column Separator

Output:VariableDictionary,
  IDF,                                    !- Key Field
  Unsorted;                               !- Sort Option

Output:SQLite,
  SimpleAndTabular;                       !- Option Type

LifeCycleCost:NonrecurringCost,
  Default Cost,                           !- Name
  Construction,                           !- Category
  0,                                      !- Cost
  ServicePeriod;                          !- Start of Costs

Output:Variable,
  ,                                       !- Key Value
  Site Outdoor Air Drybulb Temperature,   !- Variable Name
  monthly;                                !- Reporting Frequency

Output:Variable,
  ,                                       !- Key Value
  Zone Air Temperature,                   !- Variable Name
  hourly;                                 !- Reporting Frequency

Output:Variable,
  ,                                       !- Key Value
  Zone Air Relative Humidity,             !- Variable Name
  hourly;                                 !- Reporting Frequency

Output:Table:Monthly,
  Building Energy Performance - FuelOilNo1, !- Name
  2,                                      !- Digits After Decimal
  Heating:FuelOilNo1,                     !- Variable or Meter Name 1
  SumOrAverage,                           !- Aggregation Type for Variable or Meter 1
  Cooling:FuelOilNo1,                     !- Variable or Meter Name 2
  SumOrAverage,                           !- Aggregation Type for Variable or Meter 2
  Interior Lighting:FuelOilNo1,           !- Variable or Meter Name 3
  SumOrAverage,                           !- Aggregation Type for Variable or Meter 3
  Exterior Lighting:FuelOilNo1,           !- Variable or Meter Name 4
  SumOrAverage,                           !- Aggregation Type for Variable or Meter 4
  Interior Equipment:FuelOilNo1,          !- Variable or Meter Name 5
  SumOrAverage,                           !- Aggregation Type for Variable or Meter 5
  Exterior Equipment:FuelOilNo1,          !- Variable or Meter Name 6
  SumOrAverage,                           !- Aggregation Type for Variable or Meter 6
  Fans:FuelOilNo1,                        !- Variable or Meter Name 7
  SumOrAverage,                           !- Aggregation Type for Variable or Meter 7
  Pumps:FuelOilNo1,                       !- Variable or Meter Name 8
  SumOrAverage,                           !- Aggregation Type for Variable or Meter 8
  Heat Rejection:FuelOilNo1,              !- Variable or Meter Name 9
  SumOrAverage,                           !- Aggregation Type for Variable or Meter 9
  Humidification:FuelOilNo1,              !- Variable or Meter Name 10
  SumOrAverage,                           !- Aggregation Type for Variable or Meter 10
  Heat Recovery:FuelOilNo1,               !- Variable or Meter Name 11
  SumOrAverage,                           !- Aggregation Type for Variable or Meter 11
  Water Systems:FuelOilNo1,               !- Variable or Meter Name 12
  SumOrAverage,                           !- Aggregation Type for Variable or Meter 12
  Refrigeration:FuelOilNo1,               !- Variable or Meter Name 13
  SumOrAverage,                           !- Aggregation Type for Variable or Meter 13
  Generators:FuelOilNo1,                  !- Variable or Meter Name 14
  SumOrAverage;                           !- Aggregation Type for Variable or Meter 14

Output:Table:Monthly,
  Building Energy Performance - FuelOilNo2, !- Name
  2,                                      !- Digits After Decimal
  Heating:FuelOilNo2,                     !- Variable or Meter Name 1
  SumOrAverage,                           !- Aggregation Type for Variable or Meter 1
  Cooling:FuelOilNo2,                     !- Variable or Meter Name 2
  SumOrAverage,                           !- Aggregation Type for Variable or Meter 2
  Interior Lighting:FuelOilNo2,           !- Variable or Meter Name 3
  SumOrAverage,                           !- Aggregation Type for Variable or Meter 3
  Exterior Lighting:FuelOilNo2,           !- Variable or Meter Name 4
  SumOrAverage,                           !- Aggregation Type for Variable or Meter 4
  Interior Equipment:FuelOilNo2,          !- Variable or Meter Name 5
  SumOrAverage,                           !- Aggregation Type for Variable or Meter 5
  Exterior Equipment:FuelOilNo2,          !- Variable or Meter Name 6
  SumOrAverage,                           !- Aggregation Type for Variable or Meter 6
  Fans:FuelOilNo2,                        !- Variable or Meter Name 7
  SumOrAverage,                           !- Aggregation Type for Variable or Meter 7
  Pumps:FuelOilNo2,                       !- Variable or Meter Name 8
  SumOrAverage,                           !- Aggregation Type for Variable or Meter 8
  Heat Rejection:FuelOilNo2,              !- Variable or Meter Name 9
  SumOrAverage,                           !- Aggregation Type for Variable or Meter 9
  Humidification:FuelOilNo2,              !- Variable or Meter Name 10
  SumOrAverage,                           !- Aggregation Type for Variable or Meter 10
  Heat Recovery:FuelOilNo2,               !- Variable or Meter Name 11
  SumOrAverage,                           !- Aggregation Type for Variable or Meter 11
  Water Systems:FuelOilNo2,               !- Variable or Meter Name 12
  SumOrAverage,                           !- Aggregation Type for Variable or Meter 12
  Refrigeration:FuelOilNo2,               !- Variable or Meter Name 13
  SumOrAverage,                           !- Aggregation Type for Variable or Meter 13
  Generators:FuelOilNo2,                  !- Variable or Meter Name 14
  SumOrAverage;                           !- Aggregation Type for Variable or Meter 14

Output:Table:Monthly,
  Building Energy Performance - PropaneGas, !- Name
  2,                                      !- Digits After Decimal
  Heating:PropaneGas,                     !- Variable or Meter Name 1
  SumOrAverage,                           !- Aggregation Type for Variable or Meter 1
  Cooling:PropaneGas,                     !- Variable or Meter Name 2
  SumOrAverage,                           !- Aggregation Type for Variable or Meter 2
  Interior Lighting:PropaneGas,           !- Variable or Meter Name 3
  SumOrAverage,                           !- Aggregation Type for Variable or Meter 3
  Exterior Lighting:PropaneGas,           !- Variable or Meter Name 4
  SumOrAverage,                           !- Aggregation Type for Variable or Meter 4
  Interior Equipment:PropaneGas,          !- Variable or Meter Name 5
  SumOrAverage,                           !- Aggregation Type for Variable or Meter 5
  Exterior Equipment:PropaneGas,          !- Variable or Meter Name 6
  SumOrAverage,                           !- Aggregation Type for Variable or Meter 6
  Fans:PropaneGas,                        !- Variable or Meter Name 7
  SumOrAverage,                           !- Aggregation Type for Variable or Meter 7
  Pumps:PropaneGas,                       !- Variable or Meter Name 8
  SumOrAverage,                           !- Aggregation Type for Variable or Meter 8
  Heat Rejection:PropaneGas,              !- Variable or Meter Name 9
  SumOrAverage,                           !- Aggregation Type for Variable or Meter 9
  Humidification:PropaneGas,              !- Variable or Meter Name 10
  SumOrAverage,                           !- Aggregation Type for Variable or Meter 10
  Heat Recovery:PropaneGas,               !- Variable or Meter Name 11
  SumOrAverage,                           !- Aggregation Type for Variable or Meter 11
  Water Systems:PropaneGas,               !- Variable or Meter Name 12
  SumOrAverage,                           !- Aggregation Type for Variable or Meter 12
  Refrigeration:PropaneGas,               !- Variable or Meter Name 13
  SumOrAverage,                           !- Aggregation Type for Variable or Meter 13
  Generators:PropaneGas,                  !- Variable or Meter Name 14
  SumOrAverage;                           !- Aggregation Type for Variable or Meter 14

Output:Table:Monthly,
  Building Energy Performance - Coal,     !- Name
  2,                                      !- Digits After Decimal
  Heating:Coal,                           !- Variable or Meter Name 1
  SumOrAverage,                           !- Aggregation Type for Variable or Meter 1
  Cooling:Coal,                           !- Variable or Meter Name 2
  SumOrAverage,                           !- Aggregation Type for Variable or Meter 2
  Interior Lighting:Coal,                 !- Variable or Meter Name 3
  SumOrAverage,                           !- Aggregation Type for Variable or Meter 3
  Exterior Lighting:Coal,                 !- Variable or Meter Name 4
  SumOrAverage,                           !- Aggregation Type for Variable or Meter 4
  Interior Equipment:Coal,                !- Variable or Meter Name 5
  SumOrAverage,                           !- Aggregation Type for Variable or Meter 5
  Exterior Equipment:Coal,                !- Variable or Meter Name 6
  SumOrAverage,                           !- Aggregation Type for Variable or Meter 6
  Fans:Coal,                              !- Variable or Meter Name 7
  SumOrAverage,                           !- Aggregation Type for Variable or Meter 7
  Pumps:Coal,                             !- Variable or Meter Name 8
  SumOrAverage,                           !- Aggregation Type for Variable or Meter 8
  Heat Rejection:Coal,                    !- Variable or Meter Name 9
  SumOrAverage,                           !- Aggregation Type for Variable or Meter 9
  Humidification:Coal,                    !- Variable or Meter Name 10
  SumOrAverage,                           !- Aggregation Type for Variable or Meter 10
  Heat Recovery:Coal,                     !- Variable or Meter Name 11
  SumOrAverage,                           !- Aggregation Type for Variable or Meter 11
  Water Systems:Coal,                     !- Variable or Meter Name 12
  SumOrAverage,                           !- Aggregation Type for Variable or Meter 12
  Refrigeration:Coal,                     !- Variable or Meter Name 13
  SumOrAverage,                           !- Aggregation Type for Variable or Meter 13
  Generators:Coal,                        !- Variable or Meter Name 14
  SumOrAverage;                           !- Aggregation Type for Variable or Meter 14

Output:Table:Monthly,
  Building Energy Performance - Diesel,   !- Name
  2,                                      !- Digits After Decimal
  Heating:Diesel,                         !- Variable or Meter Name 1
  SumOrAverage,                           !- Aggregation Type for Variable or Meter 1
  Cooling:Diesel,                         !- Variable or Meter Name 2
  SumOrAverage,                           !- Aggregation Type for Variable or Meter 2
  Interior Lighting:Diesel,               !- Variable or Meter Name 3
  SumOrAverage,                           !- Aggregation Type for Variable or Meter 3
  Exterior Lighting:Diesel,               !- Variable or Meter Name 4
  SumOrAverage,                           !- Aggregation Type for Variable or Meter 4
  Interior Equipment:Diesel,              !- Variable or Meter Name 5
  SumOrAverage,                           !- Aggregation Type for Variable or Meter 5
  Exterior Equipment:Diesel,              !- Variable or Meter Name 6
  SumOrAverage,                           !- Aggregation Type for Variable or Meter 6
  Fans:Diesel,                            !- Variable or Meter Name 7
  SumOrAverage,                           !- Aggregation Type for Variable or Meter 7
  Pumps:Diesel,                           !- Variable or Meter Name 8
  SumOrAverage,                           !- Aggregation Type for Variable or Meter 8
  Heat Rejection:Diesel,                  !- Variable or Meter Name 9
  SumOrAverage,                           !- Aggregation Type for Variable or Meter 9
  Humidification:Diesel,                  !- Variable or Meter Name 10
  SumOrAverage,                           !- Aggregation Type for Variable or Meter 10
  Heat Recovery:Diesel,                   !- Variable or Meter Name 11
  SumOrAverage,                           !- Aggregation Type for Variable or Meter 11
  Water Systems:Diesel,                   !- Variable or Meter Name 12
  SumOrAverage,                           !- Aggregation Type for Variable or Meter 12
  Refrigeration:Diesel,                   !- Variable or Meter Name 13
  SumOrAverage,                           !- Aggregation Type for Variable or Meter 13
  Generators:Diesel,                      !- Variable or Meter Name 14
  SumOrAverage;                           !- Aggregation Type for Variable or Meter 14

Output:Table:Monthly,
  Building Energy Performance - Gasoline, !- Name
  2,                                      !- Digits After Decimal
  Heating:Gasoline,                       !- Variable or Meter Name 1
  SumOrAverage,                           !- Aggregation Type for Variable or Meter 1
  Cooling:Gasoline,                       !- Variable or Meter Name 2
  SumOrAverage,                           !- Aggregation Type for Variable or Meter 2
  Interior Lighting:Gasoline,             !- Variable or Meter Name 3
  SumOrAverage,                           !- Aggregation Type for Variable or Meter 3
  Exterior Lighting:Gasoline,             !- Variable or Meter Name 4
  SumOrAverage,                           !- Aggregation Type for Variable or Meter 4
  Interior Equipment:Gasoline,            !- Variable or Meter Name 5
  SumOrAverage,                           !- Aggregation Type for Variable or Meter 5
  Exterior Equipment:Gasoline,            !- Variable or Meter Name 6
  SumOrAverage,                           !- Aggregation Type for Variable or Meter 6
  Fans:Gasoline,                          !- Variable or Meter Name 7
  SumOrAverage,                           !- Aggregation Type for Variable or Meter 7
  Pumps:Gasoline,                         !- Variable or Meter Name 8
  SumOrAverage,                           !- Aggregation Type for Variable or Meter 8
  Heat Rejection:Gasoline,                !- Variable or Meter Name 9
  SumOrAverage,                           !- Aggregation Type for Variable or Meter 9
  Humidification:Gasoline,                !- Variable or Meter Name 10
  SumOrAverage,                           !- Aggregation Type for Variable or Meter 10
  Heat Recovery:Gasoline,                 !- Variable or Meter Name 11
  SumOrAverage,                           !- Aggregation Type for Variable or Meter 11
  Water Systems:Gasoline,                 !- Variable or Meter Name 12
  SumOrAverage,                           !- Aggregation Type for Variable or Meter 12
  Refrigeration:Gasoline,                 !- Variable or Meter Name 13
  SumOrAverage,                           !- Aggregation Type for Variable or Meter 13
  Generators:Gasoline,                    !- Variable or Meter Name 14
  SumOrAverage;                           !- Aggregation Type for Variable or Meter 14

Output:Table:Monthly,
  Building Energy Performance - OtherFuel1, !- Name
  2,                                      !- Digits After Decimal
  Heating:OtherFuel1,                     !- Variable or Meter Name 1
  SumOrAverage,                           !- Aggregation Type for Variable or Meter 1
  Cooling:OtherFuel1,                     !- Variable or Meter Name 2
  SumOrAverage,                           !- Aggregation Type for Variable or Meter 2
  Interior Lighting:OtherFuel1,           !- Variable or Meter Name 3
  SumOrAverage,                           !- Aggregation Type for Variable or Meter 3
  Exterior Lighting:OtherFuel1,           !- Variable or Meter Name 4
  SumOrAverage,                           !- Aggregation Type for Variable or Meter 4
  Interior Equipment:OtherFuel1,          !- Variable or Meter Name 5
  SumOrAverage,                           !- Aggregation Type for Variable or Meter 5
  Exterior Equipment:OtherFuel1,          !- Variable or Meter Name 6
  SumOrAverage,                           !- Aggregation Type for Variable or Meter 6
  Fans:OtherFuel1,                        !- Variable or Meter Name 7
  SumOrAverage,                           !- Aggregation Type for Variable or Meter 7
  Pumps:OtherFuel1,                       !- Variable or Meter Name 8
  SumOrAverage,                           !- Aggregation Type for Variable or Meter 8
  Heat Rejection:OtherFuel1,              !- Variable or Meter Name 9
  SumOrAverage,                           !- Aggregation Type for Variable or Meter 9
  Humidification:OtherFuel1,              !- Variable or Meter Name 10
  SumOrAverage,                           !- Aggregation Type for Variable or Meter 10
  Heat Recovery:OtherFuel1,               !- Variable or Meter Name 11
  SumOrAverage,                           !- Aggregation Type for Variable or Meter 11
  Water Systems:OtherFuel1,               !- Variable or Meter Name 12
  SumOrAverage,                           !- Aggregation Type for Variable or Meter 12
  Refrigeration:OtherFuel1,               !- Variable or Meter Name 13
  SumOrAverage,                           !- Aggregation Type for Variable or Meter 13
  Generators:OtherFuel1,                  !- Variable or Meter Name 14
  SumOrAverage;                           !- Aggregation Type for Variable or Meter 14

Output:Table:Monthly,
  Building Energy Performance - OtherFuel2, !- Name
  2,                                      !- Digits After Decimal
  Heating:OtherFuel2,                     !- Variable or Meter Name 1
  SumOrAverage,                           !- Aggregation Type for Variable or Meter 1
  Cooling:OtherFuel2,                     !- Variable or Meter Name 2
  SumOrAverage,                           !- Aggregation Type for Variable or Meter 2
  Interior Lighting:OtherFuel2,           !- Variable or Meter Name 3
  SumOrAverage,                           !- Aggregation Type for Variable or Meter 3
  Exterior Lighting:OtherFuel2,           !- Variable or Meter Name 4
  SumOrAverage,                           !- Aggregation Type for Variable or Meter 4
  Interior Equipment:OtherFuel2,          !- Variable or Meter Name 5
  SumOrAverage,                           !- Aggregation Type for Variable or Meter 5
  Exterior Equipment:OtherFuel2,          !- Variable or Meter Name 6
  SumOrAverage,                           !- Aggregation Type for Variable or Meter 6
  Fans:OtherFuel2,                        !- Variable or Meter Name 7
  SumOrAverage,                           !- Aggregation Type for Variable or Meter 7
  Pumps:OtherFuel2,                       !- Variable or Meter Name 8
  SumOrAverage,                           !- Aggregation Type for Variable or Meter 8
  Heat Rejection:OtherFuel2,              !- Variable or Meter Name 9
  SumOrAverage,                           !- Aggregation Type for Variable or Meter 9
  Humidification:OtherFuel2,              !- Variable or Meter Name 10
  SumOrAverage,                           !- Aggregation Type for Variable or Meter 10
  Heat Recovery:OtherFuel2,               !- Variable or Meter Name 11
  SumOrAverage,                           !- Aggregation Type for Variable or Meter 11
  Water Systems:OtherFuel2,               !- Variable or Meter Name 12
  SumOrAverage,                           !- Aggregation Type for Variable or Meter 12
  Refrigeration:OtherFuel2,               !- Variable or Meter Name 13
  SumOrAverage,                           !- Aggregation Type for Variable or Meter 13
  Generators:OtherFuel2,                  !- Variable or Meter Name 14
  SumOrAverage;                           !- Aggregation Type for Variable or Meter 14

Output:Table:Monthly,
  Building Energy Performance - Electricity, !- Name
  2,                                      !- Digits After Decimal
  InteriorLights:Electricity,             !- Variable or Meter Name 1
  SumOrAverage,                           !- Aggregation Type for Variable or Meter 1
  ExteriorLights:Electricity,             !- Variable or Meter Name 2
  SumOrAverage,                           !- Aggregation Type for Variable or Meter 2
  InteriorEquipment:Electricity,          !- Variable or Meter Name 3
  SumOrAverage,                           !- Aggregation Type for Variable or Meter 3
  ExteriorEquipment:Electricity,          !- Variable or Meter Name 4
  SumOrAverage,                           !- Aggregation Type for Variable or Meter 4
  Fans:Electricity,                       !- Variable or Meter Name 5
  SumOrAverage,                           !- Aggregation Type for Variable or Meter 5
  Pumps:Electricity,                      !- Variable or Meter Name 6
  SumOrAverage,                           !- Aggregation Type for Variable or Meter 6
  Heating:Electricity,                    !- Variable or Meter Name 7
  SumOrAverage,                           !- Aggregation Type for Variable or Meter 7
  Cooling:Electricity,                    !- Variable or Meter Name 8
  SumOrAverage,                           !- Aggregation Type for Variable or Meter 8
  HeatRejection:Electricity,              !- Variable or Meter Name 9
  SumOrAverage,                           !- Aggregation Type for Variable or Meter 9
  Humidifier:Electricity,                 !- Variable or Meter Name 10
  SumOrAverage,                           !- Aggregation Type for Variable or Meter 10
  HeatRecovery:Electricity,               !- Variable or Meter Name 11
  SumOrAverage,                           !- Aggregation Type for Variable or Meter 11
  WaterSystems:Electricity,               !- Variable or Meter Name 12
  SumOrAverage,                           !- Aggregation Type for Variable or Meter 12
  Cogeneration:Electricity,               !- Variable or Meter Name 13
  SumOrAverage,                           !- Aggregation Type for Variable or Meter 13
  Refrigeration:Electricity,              !- Variable or Meter Name 14
  SumOrAverage;                           !- Aggregation Type for Variable or Meter 14

Output:Table:Monthly,
  Building Energy Performance - Natural Gas, !- Name
  2,                                      !- Digits After Decimal
  InteriorEquipment:NaturalGas,           !- Variable or Meter Name 1
  SumOrAverage,                           !- Aggregation Type for Variable or Meter 1
  ExteriorEquipment:NaturalGas,           !- Variable or Meter Name 2
  SumOrAverage,                           !- Aggregation Type for Variable or Meter 2
  Heating:NaturalGas,                     !- Variable or Meter Name 3
  SumOrAverage,                           !- Aggregation Type for Variable or Meter 3
  Cooling:NaturalGas,                     !- Variable or Meter Name 4
  SumOrAverage,                           !- Aggregation Type for Variable or Meter 4
  WaterSystems:NaturalGas,                !- Variable or Meter Name 5
  SumOrAverage,                           !- Aggregation Type for Variable or Meter 5
  Cogeneration:NaturalGas,                !- Variable or Meter Name 6
  SumOrAverage;                           !- Aggregation Type for Variable or Meter 6

Output:Table:Monthly,
  Building Energy Performance - District Heating Water, !- Name
  2,                                      !- Digits After Decimal
  InteriorLights:DistrictHeatingWater,    !- Variable or Meter Name 1
  SumOrAverage,                           !- Aggregation Type for Variable or Meter 1
  ExteriorLights:DistrictHeatingWater,    !- Variable or Meter Name 2
  SumOrAverage,                           !- Aggregation Type for Variable or Meter 2
  InteriorEquipment:DistrictHeatingWater, !- Variable or Meter Name 3
  SumOrAverage,                           !- Aggregation Type for Variable or Meter 3
  ExteriorEquipment:DistrictHeatingWater, !- Variable or Meter Name 4
  SumOrAverage,                           !- Aggregation Type for Variable or Meter 4
  Fans:DistrictHeatingWater,              !- Variable or Meter Name 5
  SumOrAverage,                           !- Aggregation Type for Variable or Meter 5
  Pumps:DistrictHeatingWater,             !- Variable or Meter Name 6
  SumOrAverage,                           !- Aggregation Type for Variable or Meter 6
  Heating:DistrictHeatingWater,           !- Variable or Meter Name 7
  SumOrAverage,                           !- Aggregation Type for Variable or Meter 7
  Cooling:DistrictHeatingWater,           !- Variable or Meter Name 8
  SumOrAverage,                           !- Aggregation Type for Variable or Meter 8
  HeatRejection:DistrictHeatingWater,     !- Variable or Meter Name 9
  SumOrAverage,                           !- Aggregation Type for Variable or Meter 9
  Humidifier:DistrictHeatingWater,        !- Variable or Meter Name 10
  SumOrAverage,                           !- Aggregation Type for Variable or Meter 10
  HeatRecovery:DistrictHeatingWater,      !- Variable or Meter Name 11
  SumOrAverage,                           !- Aggregation Type for Variable or Meter 11
  WaterSystems:DistrictHeatingWater,      !- Variable or Meter Name 12
  SumOrAverage,                           !- Aggregation Type for Variable or Meter 12
  Cogeneration:DistrictHeatingWater,      !- Variable or Meter Name 13
  SumOrAverage;                           !- Aggregation Type for Variable or Meter 13

Output:Table:Monthly,
  Building Energy Performance - District Cooling, !- Name
  2,                                      !- Digits After Decimal
  InteriorLights:DistrictCooling,         !- Variable or Meter Name 1
  SumOrAverage,                           !- Aggregation Type for Variable or Meter 1
  ExteriorLights:DistrictCooling,         !- Variable or Meter Name 2
  SumOrAverage,                           !- Aggregation Type for Variable or Meter 2
  InteriorEquipment:DistrictCooling,      !- Variable or Meter Name 3
  SumOrAverage,                           !- Aggregation Type for Variable or Meter 3
  ExteriorEquipment:DistrictCooling,      !- Variable or Meter Name 4
  SumOrAverage,                           !- Aggregation Type for Variable or Meter 4
  Fans:DistrictCooling,                   !- Variable or Meter Name 5
  SumOrAverage,                           !- Aggregation Type for Variable or Meter 5
  Pumps:DistrictCooling,                  !- Variable or Meter Name 6
  SumOrAverage,                           !- Aggregation Type for Variable or Meter 6
  Heating:DistrictCooling,                !- Variable or Meter Name 7
  SumOrAverage,                           !- Aggregation Type for Variable or Meter 7
  Cooling:DistrictCooling,                !- Variable or Meter Name 8
  SumOrAverage,                           !- Aggregation Type for Variable or Meter 8
  HeatRejection:DistrictCooling,          !- Variable or Meter Name 9
  SumOrAverage,                           !- Aggregation Type for Variable or Meter 9
  Humidifier:DistrictCooling,             !- Variable or Meter Name 10
  SumOrAverage,                           !- Aggregation Type for Variable or Meter 10
  HeatRecovery:DistrictCooling,           !- Variable or Meter Name 11
  SumOrAverage,                           !- Aggregation Type for Variable or Meter 11
  WaterSystems:DistrictCooling,           !- Variable or Meter Name 12
  SumOrAverage,                           !- Aggregation Type for Variable or Meter 12
  Cogeneration:DistrictCooling,           !- Variable or Meter Name 13
  SumOrAverage;                           !- Aggregation Type for Variable or Meter 13

Output:Table:Monthly,
  Building Energy Performance - Electricity Peak Demand, !- Name
  2,                                      !- Digits After Decimal
  Electricity:Facility,                   !- Variable or Meter Name 1
  Maximum,                                !- Aggregation Type for Variable or Meter 1
  InteriorLights:Electricity,             !- Variable or Meter Name 2
  ValueWhenMaximumOrMinimum,              !- Aggregation Type for Variable or Meter 2
  ExteriorLights:Electricity,             !- Variable or Meter Name 3
  ValueWhenMaximumOrMinimum,              !- Aggregation Type for Variable or Meter 3
  InteriorEquipment:Electricity,          !- Variable or Meter Name 4
  ValueWhenMaximumOrMinimum,              !- Aggregation Type for Variable or Meter 4
  ExteriorEquipment:Electricity,          !- Variable or Meter Name 5
  ValueWhenMaximumOrMinimum,              !- Aggregation Type for Variable or Meter 5
  Fans:Electricity,                       !- Variable or Meter Name 6
  ValueWhenMaximumOrMinimum,              !- Aggregation Type for Variable or Meter 6
  Pumps:Electricity,                      !- Variable or Meter Name 7
  ValueWhenMaximumOrMinimum,              !- Aggregation Type for Variable or Meter 7
  Heating:Electricity,                    !- Variable or Meter Name 8
  ValueWhenMaximumOrMinimum,              !- Aggregation Type for Variable or Meter 8
  Cooling:Electricity,                    !- Variable or Meter Name 9
  ValueWhenMaximumOrMinimum,              !- Aggregation Type for Variable or Meter 9
  HeatRejection:Electricity,              !- Variable or Meter Name 10
  ValueWhenMaximumOrMinimum,              !- Aggregation Type for Variable or Meter 10
  Humidifier:Electricity,                 !- Variable or Meter Name 11
  ValueWhenMaximumOrMinimum,              !- Aggregation Type for Variable or Meter 11
  HeatRecovery:Electricity,               !- Variable or Meter Name 12
  ValueWhenMaximumOrMinimum,              !- Aggregation Type for Variable or Meter 12
  WaterSystems:Electricity,               !- Variable or Meter Name 13
  ValueWhenMaximumOrMinimum,              !- Aggregation Type for Variable or Meter 13
  Cogeneration:Electricity,               !- Variable or Meter Name 14
  ValueWhenMaximumOrMinimum,              !- Aggregation Type for Variable or Meter 14
  Refrigeration:Electricity,              !- Variable or Meter Name 15
  ValueWhenMaximumOrMinimum;              !- Aggregation Type for Variable or Meter 15

Output:Table:Monthly,
  Building Energy Performance - Natural Gas Peak Demand, !- Name
  2,                                      !- Digits After Decimal
  NaturalGas:Facility,                    !- Variable or Meter Name 1
  Maximum,                                !- Aggregation Type for Variable or Meter 1
  InteriorEquipment:NaturalGas,           !- Variable or Meter Name 2
  ValueWhenMaximumOrMinimum,              !- Aggregation Type for Variable or Meter 2
  ExteriorEquipment:NaturalGas,           !- Variable or Meter Name 3
  ValueWhenMaximumOrMinimum,              !- Aggregation Type for Variable or Meter 3
  Heating:NaturalGas,                     !- Variable or Meter Name 4
  ValueWhenMaximumOrMinimum,              !- Aggregation Type for Variable or Meter 4
  Cooling:NaturalGas,                     !- Variable or Meter Name 5
  ValueWhenMaximumOrMinimum,              !- Aggregation Type for Variable or Meter 5
  WaterSystems:NaturalGas,                !- Variable or Meter Name 6
  ValueWhenMaximumOrMinimum,              !- Aggregation Type for Variable or Meter 6
  Cogeneration:NaturalGas,                !- Variable or Meter Name 7
  ValueWhenMaximumOrMinimum;              !- Aggregation Type for Variable or Meter 7

Output:Table:Monthly,
  Building Energy Performance - District Heating Water Peak Demand, !- Name
  2,                                      !- Digits After Decimal
  DistrictHeatingWater:Facility,          !- Variable or Meter Name 1
  Maximum,                                !- Aggregation Type for Variable or Meter 1
  InteriorLights:DistrictHeatingWater,    !- Variable or Meter Name 2
  ValueWhenMaximumOrMinimum,              !- Aggregation Type for Variable or Meter 2
  ExteriorLights:DistrictHeatingWater,    !- Variable or Meter Name 3
  ValueWhenMaximumOrMinimum,              !- Aggregation Type for Variable or Meter 3
  InteriorEquipment:DistrictHeatingWater, !- Variable or Meter Name 4
  ValueWhenMaximumOrMinimum,              !- Aggregation Type for Variable or Meter 4
  ExteriorEquipment:DistrictHeatingWater, !- Variable or Meter Name 5
  ValueWhenMaximumOrMinimum,              !- Aggregation Type for Variable or Meter 5
  Fans:DistrictHeatingWater,              !- Variable or Meter Name 6
  ValueWhenMaximumOrMinimum,              !- Aggregation Type for Variable or Meter 6
  Pumps:DistrictHeatingWater,             !- Variable or Meter Name 7
  ValueWhenMaximumOrMinimum,              !- Aggregation Type for Variable or Meter 7
  Heating:DistrictHeatingWater,           !- Variable or Meter Name 8
  ValueWhenMaximumOrMinimum,              !- Aggregation Type for Variable or Meter 8
  Cooling:DistrictHeatingWater,           !- Variable or Meter Name 9
  ValueWhenMaximumOrMinimum,              !- Aggregation Type for Variable or Meter 9
  HeatRejection:DistrictHeatingWater,     !- Variable or Meter Name 10
  ValueWhenMaximumOrMinimum,              !- Aggregation Type for Variable or Meter 10
  Humidifier:DistrictHeatingWater,        !- Variable or Meter Name 11
  ValueWhenMaximumOrMinimum,              !- Aggregation Type for Variable or Meter 11
  HeatRecovery:DistrictHeatingWater,      !- Variable or Meter Name 12
  ValueWhenMaximumOrMinimum,              !- Aggregation Type for Variable or Meter 12
  WaterSystems:DistrictHeatingWater,      !- Variable or Meter Name 13
  ValueWhenMaximumOrMinimum,              !- Aggregation Type for Variable or Meter 13
  Cogeneration:DistrictHeatingWater,      !- Variable or Meter Name 14
  ValueWhenMaximumOrMinimum;              !- Aggregation Type for Variable or Meter 14

Output:Table:Monthly,
  Building Energy Performance - District Cooling Peak Demand, !- Name
  2,                                      !- Digits After Decimal
  DistrictCooling:Facility,               !- Variable or Meter Name 1
  Maximum,                                !- Aggregation Type for Variable or Meter 1
  InteriorLights:DistrictCooling,         !- Variable or Meter Name 2
  ValueWhenMaximumOrMinimum,              !- Aggregation Type for Variable or Meter 2
  ExteriorLights:DistrictCooling,         !- Variable or Meter Name 3
  ValueWhenMaximumOrMinimum,              !- Aggregation Type for Variable or Meter 3
  InteriorEquipment:DistrictCooling,      !- Variable or Meter Name 4
  ValueWhenMaximumOrMinimum,              !- Aggregation Type for Variable or Meter 4
  ExteriorEquipment:DistrictCooling,      !- Variable or Meter Name 5
  ValueWhenMaximumOrMinimum,              !- Aggregation Type for Variable or Meter 5
  Fans:DistrictCooling,                   !- Variable or Meter Name 6
  ValueWhenMaximumOrMinimum,              !- Aggregation Type for Variable or Meter 6
  Pumps:DistrictCooling,                  !- Variable or Meter Name 7
  ValueWhenMaximumOrMinimum,              !- Aggregation Type for Variable or Meter 7
  Heating:DistrictCooling,                !- Variable or Meter Name 8
  ValueWhenMaximumOrMinimum,              !- Aggregation Type for Variable or Meter 8
  Cooling:DistrictCooling,                !- Variable or Meter Name 9
  ValueWhenMaximumOrMinimum,              !- Aggregation Type for Variable or Meter 9
  HeatRejection:DistrictCooling,          !- Variable or Meter Name 10
  ValueWhenMaximumOrMinimum,              !- Aggregation Type for Variable or Meter 10
  Humidifier:DistrictCooling,             !- Variable or Meter Name 11
  ValueWhenMaximumOrMinimum,              !- Aggregation Type for Variable or Meter 11
  HeatRecovery:DistrictCooling,           !- Variable or Meter Name 12
  ValueWhenMaximumOrMinimum,              !- Aggregation Type for Variable or Meter 12
  WaterSystems:DistrictCooling,           !- Variable or Meter Name 13
  ValueWhenMaximumOrMinimum,              !- Aggregation Type for Variable or Meter 13
  Cogeneration:DistrictCooling,           !- Variable or Meter Name 14
  ValueWhenMaximumOrMinimum;              !- Aggregation Type for Variable or Meter 14

Output:Meter:MeterFileOnly,
  NaturalGas:Facility,                    !- Key Name
  Daily;                                  !- Reporting Frequency

Output:Meter:MeterFileOnly,
  Electricity:Facility,                   !- Key Name
  Timestep;                               !- Reporting Frequency

Output:Meter:MeterFileOnly,
  Electricity:Facility,                   !- Key Name
  Daily;                                  !- Reporting Frequency

Output:Meter,
  Electricity:Facility,                   !- Key Name
  Timestep;                               !- Reporting Frequency

Output:Meter,
  NaturalGas:Facility,                    !- Key Name
  Timestep;                               !- Reporting Frequency

Output:Meter,
  DistrictHeatingWater:Facility,          !- Key Name
  Timestep;                               !- Reporting Frequency

Output:Meter,
  DistrictCooling:Facility,               !- Key Name
  Timestep;                               !- Reporting Frequency

